 vasp.6.3.2 27Jun22 (build Dec 14 2024 18:09:17) complex                        
  
 executed on             LinuxIFC date 2026.07.06  15:51:45
 running   32 mpi-ranks, with    1 threads/rank
 distrk:  each k-point on   32 cores,    1 groups
 distr:  one band on NCORE=   1 cores,   32 groups


--------------------------------------------------------------------------------------------------------


 INCAR:
   SYSTEM = CO_on_Cu
   ISTART = 0
   ICHARG = 2
   ENCUT = 600
   LH5 = .FALSE.
   NSW = 100
   IBRION = 2
   EDIFFG = -0.01
   GGA = PE
   ALGO = Normal
   NELM = 200
   EDIFF = 1E-6
   ISMEAR = -1
   SIGMA = 0.027

 POTCAR:    PAW_PBE Cu 22Jun2005                  
 POTCAR:    PAW_PBE O 08Apr2002                   
 POTCAR:    PAW_PBE C 08Apr2002                   
 POTCAR:    PAW_PBE Cu 22Jun2005                  
   SHA256 =  0e71e558f37a4e8407882b4609ceaae59938afaad9ced71dfe8490308a0ab630 Cu/POTCAR             
   COPYR  = (c) Copyright 22Jun2005 Georg Kresse                                                    
   COPYR  = This file is part of the software VASP. Any use, copying, and all other rights are regul
   COPYR  = If you do not have a valid VASP license, you may not use, copy or distribute this file. 
   VRHFIN =Cu: d10 p1                                                                               
   LEXCH  = PE                                                                                      
   EATOM  =  1390.9808 eV,  102.2342 Ry                                                             
                                                                                                    
   TITEL  = PAW_PBE Cu 22Jun2005                                                                    
   LULTRA =        F    use ultrasoft PP ?                                                          
   IUNSCR =        1    unscreen: 0-lin 1-nonlin 2-no                                               
   RPACOR =    2.000    partial core radius                                                         
   POMASS =   63.546; ZVAL   =   11.000    mass and valenz                                          
   RCORE  =    2.300    outmost cutoff radius                                                       
   RWIGS  =    2.200; RWIGS  =    1.164    wigner-seitz radius (au A)                               
   ENMAX  =  295.446; ENMIN  =  221.585 eV                                                          
   ICORE  =        3    local potential                                                             
   LCOR   =        T    correct aug charges                                                         
   LPAW   =        T    paw PP                                                                      
   EAUG   =  586.980                                                                                
   DEXC   =    0.000                                                                                
   RMAX   =    2.344    core radius for proj-oper                                                   
   RAUG   =    1.300    factor for augmentation sphere                                              
   RDEP   =    2.302    radius for radial grids                                                     
   RDEPT  =    1.771    core radius for aug-charge                                                  
                                                                                                    
   Atomic configuration                                                                             
    9 entries                                                                                       
     n  l   j            E        occ.                                                              
     1  0  0.50     -8850.2468   2.0000                                                             
     2  0  0.50     -1062.3498   2.0000                                                             
     2  1  1.50      -916.8226   6.0000                                                             
     3  0  0.50      -114.6929   2.0000                                                             
     3  1  1.50       -72.1325   6.0000                                                             
     3  2  2.50        -5.0394  10.0000                                                             
     4  0  0.50        -4.6097   1.0000                                                             
     4  1  0.50        -4.0817   0.0000                                                             
     4  3  2.50        -1.3606   0.0000                                                             
   Description                                                                                      
     l       E           TYP  RCUT    TYP  RCUT                                                     
     2     -5.0393973     23  2.200                                                                 
     2     10.8846608     23  2.200                                                                 
     0     -4.6097109     23  2.200                                                                 
     0      8.2520465     23  2.200                                                                 
     1     -2.7211652     23  2.200                                                                 
     1     21.7055443     23  2.200                                                                 
     3      2.7211652     23  2.300                                                                 
  local pseudopotential read in
  partial core-charges read in
  partial kinetic energy density read in
  atomic valenz-charges read in
  non local Contribution for L=           2  read in
    real space projection operators read in
  non local Contribution for L=           2  read in
    real space projection operators read in
  non local Contribution for L=           0  read in
    real space projection operators read in
  non local Contribution for L=           0  read in
    real space projection operators read in
  non local Contribution for L=           1  read in
    real space projection operators read in
  non local Contribution for L=           1  read in
    real space projection operators read in
    PAW grid and wavefunctions read in
 
   number of l-projection  operators is LMAX  =           6
   number of lm-projection operators is LMMAX =          18
 
 POTCAR:    PAW_PBE O 08Apr2002                   
   SHA256 =  818f92134a0a090dccd8ba1447fa70422a3b330e708bb4f08108d8ae51209ddf O/POTCAR              
   COPYR  = (c) Copyright 08Apr2002 Georg Kresse                                                    
   COPYR  = This file is part of the software VASP. Any use, copying, and all other rights are regul
   COPYR  = If you do not have a valid VASP license, you may not use, copy or distribute this file. 
   VRHFIN =O: s2p4                                                                                  
   LEXCH  = PE                                                                                      
   EATOM  =   432.3788 eV,   31.7789 Ry                                                             
                                                                                                    
   TITEL  = PAW_PBE O 08Apr2002                                                                     
   LULTRA =        F    use ultrasoft PP ?                                                          
   IUNSCR =        1    unscreen: 0-lin 1-nonlin 2-no                                               
   RPACOR =    1.200    partial core radius                                                         
   POMASS =   16.000; ZVAL   =    6.000    mass and valenz                                          
   RCORE  =    1.520    outmost cutoff radius                                                       
   RWIGS  =    1.550; RWIGS  =    0.820    wigner-seitz radius (au A)                               
   ENMAX  =  400.000; ENMIN  =  300.000 eV                                                          
   ICORE  =        2    local potential                                                             
   LCOR   =        T    correct aug charges                                                         
   LPAW   =        T    paw PP                                                                      
   EAUG   =  605.392                                                                                
   DEXC   =    0.000                                                                                
   RMAX   =    1.553    core radius for proj-oper                                                   
   RAUG   =    1.300    factor for augmentation sphere                                              
   RDEP   =    1.550    radius for radial grids                                                     
   RDEPT  =    1.329    core radius for aug-charge                                                  
                                                                                                    
   Atomic configuration                                                                             
    4 entries                                                                                       
     n  l   j            E        occ.                                                              
     1  0  0.50      -514.6923   2.0000                                                             
     2  0  0.50       -23.9615   2.0000                                                             
     2  1  0.50        -9.0305   4.0000                                                             
     3  2  1.50        -9.5241   0.0000                                                             
   Description                                                                                      
     l       E           TYP  RCUT    TYP  RCUT                                                     
     0    -23.9615318     23  1.200                                                                 
     0     -9.5240782     23  1.200                                                                 
     1     -9.0304911     23  1.520                                                                 
     1      8.1634956     23  1.520                                                                 
     2     -9.5240782      7  1.500                                                                 
  local pseudopotential read in
  partial core-charges read in
  partial kinetic energy density read in
  kinetic energy density of atom read in
  atomic valenz-charges read in
  non local Contribution for L=           0  read in
    real space projection operators read in
  non local Contribution for L=           0  read in
    real space projection operators read in
  non local Contribution for L=           1  read in
    real space projection operators read in
  non local Contribution for L=           1  read in
    real space projection operators read in
    PAW grid and wavefunctions read in
 
   number of l-projection  operators is LMAX  =           4
   number of lm-projection operators is LMMAX =           8
 
 POTCAR:    PAW_PBE C 08Apr2002                   
   SHA256 =  253f7b50bb8d59471dbedb8285d89021f4a42ed1a2c5d38a03a736e69125dd95 C/POTCAR              
   COPYR  = (c) Copyright 08Apr2002 Georg Kresse                                                    
   COPYR  = This file is part of the software VASP. Any use, copying, and all other rights are regul
   COPYR  = If you do not have a valid VASP license, you may not use, copy or distribute this file. 
   VRHFIN =C: s2p2                                                                                  
   LEXCH  = PE                                                                                      
   EATOM  =   147.1560 eV,   10.8157 Ry                                                             
                                                                                                    
   TITEL  = PAW_PBE C 08Apr2002                                                                     
   LULTRA =        F    use ultrasoft PP ?                                                          
   IUNSCR =        1    unscreen: 0-lin 1-nonlin 2-no                                               
   RPACOR =    1.200    partial core radius                                                         
   POMASS =   12.011; ZVAL   =    4.000    mass and valenz                                          
   RCORE  =    1.500    outmost cutoff radius                                                       
   RWIGS  =    1.630; RWIGS  =    0.863    wigner-seitz radius (au A)                               
   ENMAX  =  400.000; ENMIN  =  300.000 eV                                                          
   ICORE  =        2    local potential                                                             
   LCOR   =        T    correct aug charges                                                         
   LPAW   =        T    paw PP                                                                      
   EAUG   =  644.873                                                                                
   DEXC   =    0.000                                                                                
   RMAX   =    1.529    core radius for proj-oper                                                   
   RAUG   =    1.300    factor for augmentation sphere                                              
   RDEP   =    1.501    radius for radial grids                                                     
   RDEPT  =    1.300    core radius for aug-charge                                                  
                                                                                                    
   Atomic configuration                                                                             
    4 entries                                                                                       
     n  l   j            E        occ.                                                              
     1  0  0.50      -273.3789   2.0000                                                             
     2  0  0.50       -13.7508   2.0000                                                             
     2  1  0.50        -5.2854   2.0000                                                             
     3  2  1.50        -5.4423   0.0000                                                             
   Description                                                                                      
     l       E           TYP  RCUT    TYP  RCUT                                                     
     0    -13.7508458     23  1.200                                                                 
     0     -8.2022199     23  1.200                                                                 
     1     -5.2854383     23  1.500                                                                 
     1     34.0145650     23  1.500                                                                 
     2     -5.4423304      7  1.500                                                                 
  local pseudopotential read in
  partial core-charges read in
  partial kinetic energy density read in
  atomic valenz-charges read in
  non local Contribution for L=           0  read in
    real space projection operators read in
  non local Contribution for L=           0  read in
    real space projection operators read in
  non local Contribution for L=           1  read in
    real space projection operators read in
  non local Contribution for L=           1  read in
    real space projection operators read in
    PAW grid and wavefunctions read in
 
   number of l-projection  operators is LMAX  =           4
   number of lm-projection operators is LMMAX =           8
 
  PAW_PBE Cu 22Jun2005                  :
 energy of atom  1       EATOM=-1390.9808
 kinetic energy error for atom=    0.0033 (will be added to EATOM!!)
  PAW_PBE O 08Apr2002                   :
 energy of atom  2       EATOM= -432.3788
 kinetic energy error for atom=    0.0168 (will be added to EATOM!!)
  PAW_PBE C 08Apr2002                   :
 energy of atom  3       EATOM= -147.1560
 kinetic energy error for atom=    0.0057 (will be added to EATOM!!)
 
 
 POSCAR: Cu12 O1 C1
  positions in cartesian coordinates
  No initial velocities read in
 exchange correlation table for  LEXCH =        8
   RHO(1)=    0.500       N(1)  =     2000
   RHO(2)=  100.500       N(2)  =     4000
 
 POSCAR: Cu12 O1 C1
  positions in cartesian coordinates
  No initial velocities read in
 
 POSCAR: Cu12 O1 C1
  positions in cartesian coordinates
  No initial velocities read in
 


--------------------------------------------------------------------------------------------------------


 ion  position               nearest neighbor table
   1  0.167  0.167  0.439-   5 2.56   8 2.56   6 2.56   3 2.56   3 2.56   4 2.56   4 2.56   2 2.56
                             2 2.56
   2  0.667  0.167  0.439-   6 2.56   7 2.56   5 2.56   4 2.56   3 2.56   4 2.56   3 2.56   1 2.56
                             1 2.56
   3  0.167  0.667  0.439-   6 2.56   7 2.56   8 2.56   1 2.56   1 2.56   2 2.56   2 2.56   4 2.56
                             4 2.56
   4  0.667  0.667  0.439-   5 2.56   8 2.56   7 2.56   2 2.56   1 2.56   2 2.56   1 2.56   3 2.56
                             3 2.56
   5  0.833  0.333  0.500-   1 2.56   4 2.56  11 2.56   9 2.56  12 2.56   2 2.56   7 2.56   7 2.56
                             8 2.56   8 2.56   6 2.56   6 2.56
   6  0.333  0.333  0.500-   2 2.56   3 2.56  12 2.56  11 2.56  10 2.56   1 2.56   8 2.56   7 2.56
                             8 2.56   7 2.56   5 2.56   5 2.56
   7  0.833  0.833  0.500-   2 2.56   3 2.56   9 2.56  10 2.56  11 2.56   4 2.56   5 2.56   5 2.56
                             6 2.56   6 2.56   8 2.56   8 2.56
   8  0.333  0.833  0.500-   1 2.56   4 2.56  10 2.56   9 2.56  12 2.56   3 2.56   6 2.56   5 2.56
                             6 2.56   5 2.56   7 2.56   7 2.56
   9  0.000  0.000  0.561-  14 1.83   7 2.56   8 2.56   5 2.56  11 2.56  11 2.56  12 2.56  12 2.56
                            10 2.56  10 2.56
  10  0.500  0.000  0.561-   8 2.56   7 2.56   6 2.56  12 2.56  11 2.56  12 2.56  11 2.56   9 2.56
                             9 2.56
  11  0.000  0.500  0.561-   5 2.56   6 2.56   7 2.56   9 2.56   9 2.56  10 2.56  10 2.56  12 2.56
                            12 2.56
  12  0.500  0.500  0.561-   6 2.56   5 2.56   8 2.56  10 2.56   9 2.56  10 2.56   9 2.56  11 2.56
                            11 2.56
  13  0.000  0.000  0.649-  14 1.16
  14  0.000  0.000  0.615-  13 1.16   9 1.83
 
  LATTYP: Found a hexagonal cell.
 ALAT       =     5.1123820280
 C/A-ratio  =     6.6846026489
  
  Lattice vectors:
  
 A1 = (  -2.5561910140,  -4.4274527101,   0.0000000000)
 A2 = (   5.1123820280,   0.0000000000,   0.0000000000)
 A3 = (   0.0000000000,   0.0000000000,  34.1742424462)


Analysis of symmetry for initial positions (statically):
=====================================================================
 Subroutine PRICEL returns:
 Original cell was already a primitive cell.
 

 Routine SETGRP: Setting up the symmetry group for a 
 hexagonal supercell.


 Subroutine GETGRP returns: Found  6 space group operations
 (whereof  6 operations were pure point group operations)
 out of a pool of 24 trial point group operations.


The static configuration has the point symmetry C_3v.


Analysis of symmetry for dynamics (positions and initial velocities):
=====================================================================
 Subroutine PRICEL returns:
 Original cell was already a primitive cell.
 

 Routine SETGRP: Setting up the symmetry group for a 
 hexagonal supercell.


 Subroutine GETGRP returns: Found  6 space group operations
 (whereof  6 operations were pure point group operations)
 out of a pool of 24 trial point group operations.


The dynamic configuration has the point symmetry C_3v.


Analysis of constrained symmetry for selective dynamics:
=====================================================================
 Subroutine PRICEL returns:
 Original cell was already a primitive cell.
 

 Routine SETGRP: Setting up the symmetry group for a 
 hexagonal supercell.


 Subroutine GETGRP returns: Found  6 space group operations
 (whereof  6 operations were pure point group operations)
 out of a pool of 24 trial point group operations.


The constrained configuration has the point symmetry C_3v.


 Subroutine INISYM returns: Found  6 space group operations
 (whereof  6 operations are pure point group operations),
 and found     1 'primitive' translations


----------------------------------------------------------------------------------------

                                     Primitive cell                                     

  volume of cell :     773.5282

  direct lattice vectors                    reciprocal lattice vectors
     5.112382028  0.000000000  0.000000000     0.195603536 -0.112931754  0.000000000
     2.556191014  4.427452710  0.000000000     0.000000000  0.225863508  0.000000000
     0.000000000  0.000000000 34.174242446     0.000000000  0.000000000  0.029261804

  length of vectors
     5.112382028  5.112382028 34.174242446     0.225863508  0.225863508  0.029261804

  position of ions in fractional coordinates (direct lattice)
     0.166666667  0.166666667  0.438927067
     0.666666667  0.166666667  0.438927067
     0.166666667  0.666666667  0.438927067
     0.666666667  0.666666667  0.438927067
     0.833333333  0.333333333  0.500000000
     0.333333333  0.333333333  0.500000000
     0.833333333  0.833333333  0.500000000
     0.333333333  0.833333333  0.500000000
     0.000000000  0.000000000  0.561072933
     0.500000000  0.000000000  0.561072933
     1.000000000  0.500000000  0.561072933
     0.500000000  0.500000000  0.561072933
     0.000000000  0.000000000  0.648565072
     0.000000000  0.000000000  0.614631035

  ion indices of the primitive-cell ions
   primitive index   ion index
                 1           1
                 2           2
                 3           3
                 4           4
                 5           5
                 6           6
                 7           7
                 8           8
                 9           9
                10          10
                11          11
                12          12
                13          13
                14          14

----------------------------------------------------------------------------------------

 
 
 KPOINTS: K-Points                                

Automatic generation of k-mesh.
 Grid dimensions read from file:
 generate k-points for:    5    5    1

 Generating k-lattice:

  Cartesian coordinates                     Fractional coordinates (reciprocal lattice)
     0.039120707 -0.022586351  0.000000000     0.200000000  0.000000000  0.000000000
     0.000000000  0.045172702  0.000000000     0.000000000  0.200000000  0.000000000
     0.000000000  0.000000000  0.029261804     0.000000000  0.000000000  1.000000000

  Length of vectors
     0.045172702  0.045172702  0.029261804

  Shift w.r.t. Gamma in fractional coordinates (k-lattice)
     0.000000000  0.000000000  0.000000000

 
 Subroutine IBZKPT returns following result:
 ===========================================
 
 Found      5 irreducible k-points:
 
 Following reciprocal coordinates:
            Coordinates               Weight
  0.000000  0.000000  0.000000      1.000000
  0.200000  0.000000  0.000000      6.000000
  0.400000  0.000000  0.000000      6.000000
  0.400000  0.200000  0.000000      6.000000
 -0.400000  0.200000  0.000000      6.000000
 
 Following cartesian coordinates:
            Coordinates               Weight
  0.000000  0.000000  0.000000      1.000000
  0.039121 -0.022586  0.000000      6.000000
  0.078241 -0.045173  0.000000      6.000000
  0.078241  0.000000  0.000000      6.000000
 -0.078241  0.090345  0.000000      6.000000
 


--------------------------------------------------------------------------------------------------------




 Dimension of arrays:
   k-points           NKPTS =      5   k-points in BZ     NKDIM =      5   number of bands    NBANDS=     96
   number of dos      NEDOS =    301   number of ions     NIONS =     14
   non local maximal  LDIM  =      6   non local SUM 2l+1 LMDIM =     18
   total plane-waves  NPLWV = 215040
   max r-space proj   IRMAX =      1   max aug-charges    IRDMAX=   8251
   dimension x,y,z NGX =    32 NGY =   32 NGZ =  210
   dimension x,y,z NGXF=    64 NGYF=   64 NGZF=  420
   support grid    NGXF=    64 NGYF=   64 NGZF=  420
   ions per type =              12   1   1
   NGX,Y,Z   is equivalent  to a cutoff of  10.41, 10.41, 10.22 a.u.
   NGXF,Y,Z  is equivalent  to a cutoff of  20.81, 20.81, 20.43 a.u.

 SYSTEM =  CO_on_Cu                                
 POSCAR =  Cu12 O1 C1                              

 Startparameter for this run:
   NWRITE =      2    write-flag & timer
   PREC   = normal    normal or accurate (medium, high low for compatibility)
   ISTART =      0    job   : 0-new  1-cont  2-samecut
   ICHARG =      2    charge: 1-file 2-atom 10-const
   ISPIN  =      1    spin polarized calculation?
   LNONCOLLINEAR =      F non collinear calculations
   LSORBIT =      F    spin-orbit coupling
   INIWAV =      1    electr: 0-lowe 1-rand  2-diag
   LASPH  =      F    aspherical Exc in radial PAW
 Electronic Relaxation 1
   ENCUT  =  600.0 eV  44.10 Ry    6.64 a.u.  10.21 10.21 68.25*2*pi/ulx,y,z
   ENINI  =  600.0     initial cutoff
   ENAUG  =  644.9 eV  augmentation charge cutoff
   NELM   =    200;   NELMIN=  2; NELMDL= -5     # of ELM steps 
   EDIFF  = 0.1E-05   stopping-criterion for ELM
   LREAL  =      F    real-space projection
   NLSPLINE    = F    spline interpolate recip. space projectors
   LCOMPAT=      F    compatible to vasp.4.4
   GGA_COMPAT  = T    GGA compatible to vasp.4.4-vasp.4.6
   LMAXPAW     = -100 max onsite density
   LMAXMIX     =    2 max onsite mixed and CHGCAR
   VOSKOWN=      0    Vosko Wilk Nusair interpolation
   ROPT   =    0.00000   0.00000   0.00000
 Ionic relaxation
   EDIFFG = -.1E-01   stopping-criterion for IOM
   NSW    =    100    number of steps for IOM
   NBLOCK =      1;   KBLOCK =    100    inner block; outer block 
   IBRION =      2    ionic relax: 0-MD 1-quasi-New 2-CG
   NFREE  =      1    steps in history (QN), initial steepest desc. (CG)
   ISIF   =      2    stress and relaxation
   IWAVPR =     11    prediction:  0-non 1-charg 2-wave 3-comb
   ISYM   =      2    0-nonsym 1-usesym 2-fastsym
   LCORR  =      T    Harris-Foulkes like correction to forces

   POTIM  = 0.5000    time-step for ionic-motion
   TEIN   =    0.0    initial temperature
   TEBEG  =    0.0;   TEEND  =   0.0 temperature during run
   SMASS  =  -3.00    Nose mass-parameter (am)
   estimated Nose-frequenzy (Omega)   =  0.10E-29 period in steps = 0.13E+47 mass=  -0.597E-27a.u.
   SCALEE = 1.0000    scale energy and forces
   NPACO  =    256;   APACO  = 10.0  distance and # of slots for P.C.
   PSTRESS=    0.0 pullay stress

  Mass of Ions in am
   POMASS =  63.55 16.00 12.01
  Ionic Valenz
   ZVAL   =  11.00  6.00  4.00
  Atomic Wigner-Seitz radii
   RWIGS  =  -1.00 -1.00 -1.00
  virtual crystal weights 
   VCA    =   1.00  1.00  1.00
   NELECT =     142.0000    total number of electrons
   NUPDOWN=      -1.0000    fix difference up-down

 DOS related values:
   EMIN   =  10.00;   EMAX   =-10.00  energy-range for DOS
   EFERMI =   0.00
   ISMEAR =    -1;   SIGMA  =   0.03  broadening in eV -4-tet -1-fermi 0-gaus

 Electronic relaxation 2 (details)
   IALGO  =     38    algorithm
   LDIAG  =      T    sub-space diagonalisation (order eigenvalues)
   LSUBROT=      F    optimize rotation matrix (better conditioning)
   TURBO    =      0    0=normal 1=particle mesh
   IRESTART =      0    0=no restart 2=restart with 2 vectors
   NREBOOT  =      0    no. of reboots
   NMIN     =      0    reboot dimension
   EREF     =   0.00    reference energy to select bands
   IMIX   =      4    mixing-type and parameters
     AMIX     =   0.40;   BMIX     =  1.00
     AMIX_MAG =   1.60;   BMIX_MAG =  1.00
     AMIN     =   0.10
     WC   =   100.;   INIMIX=   1;  MIXPRE=   1;  MAXMIX= -45

 Intra band minimization:
   WEIMIN = 0.0010     energy-eigenvalue tresh-hold
   EBREAK =  0.26E-08  absolut break condition
   DEPER  =   0.30     relativ break condition  

   TIME   =   0.40     timestep for ELM

  volume/ion in A,a.u.               =      55.25       372.86
  Fermi-wavevector in a.u.,A,eV,Ry     =   0.930420  1.758238 11.778303  0.865681
  Thomas-Fermi vector in A             =   2.056806
 
 Write flags
   LWAVE        =      T    write WAVECAR
   LDOWNSAMPLE  =      F    k-point downsampling of WAVECAR
   LCHARG       =      T    write CHGCAR
   LVTOT        =      F    write LOCPOT, total local potential
   LVHAR        =      F    write LOCPOT, Hartree potential only
   LELF         =      F    write electronic localiz. function (ELF)
   LORBIT       =      0    0 simple, 1 ext, 2 COOP (PROOUT), +10 PAW based schemes


 Dipole corrections
   LMONO  =      F    monopole corrections only (constant potential shift)
   LDIPOL =      F    correct potential (dipole corrections)
   IDIPOL =      0    1-x, 2-y, 3-z, 4-all directions 
   EPSILON=  1.0000000 bulk dielectric constant

 Exchange correlation treatment:
   GGA     =    PE    GGA type
   LEXCH   =     8    internal setting for exchange type
   LIBXC   =     F    Libxc                    
   VOSKOWN =     0    Vosko Wilk Nusair interpolation
   LHFCALC =     F    Hartree Fock is set to
   LHFONE  =     F    Hartree Fock one center treatment
   AEXX    =    0.0000 exact exchange contribution

 Linear response parameters
   LEPSILON=     F    determine dielectric tensor
   LRPA    =     F    only Hartree local field effects (RPA)
   LNABLA  =     F    use nabla operator in PAW spheres
   LVEL    =     F    velocity operator in full k-point grid
   CSHIFT  =0.1000    complex shift for real part using Kramers Kronig
   OMEGAMAX=  -1.0    maximum frequency
   DEG_THRESHOLD= 0.2000000E-02 threshold for treating states as degnerate
   RTIME   =   -0.100 relaxation time in fs
  (WPLASMAI=    0.000 imaginary part of plasma frequency in eV, 0.658/RTIME)
   DFIELD  = 0.0000000 0.0000000 0.0000000 field for delta impulse in time
 
  Optional k-point grid parameters
   LKPOINTS_OPT  =     F    use optional k-point grid
   KPOINTS_OPT_MODE=     1    mode for optional k-point grid
 
 Orbital magnetization related:
   ORBITALMAG=     F  switch on orbital magnetization
   LCHIMAG   =     F  perturbation theory with respect to B field
   DQ        =  0.001000  dq finite difference perturbation B field
   LLRAUG    =     F  two centre corrections for induced B field



--------------------------------------------------------------------------------------------------------


 conjugate gradient relaxation of ions
   using selective dynamics as specified on POSCAR
   WARNING: If single coordinates had been selected the selection of coordinates
            is made according to the corresponding   d i r e c t   coordinates!
            Don't support selection of single cartesian coordinates -- sorry ...
  !
 charge density and potential will be updated during run
 non-spin polarized calculation
 Variant of blocked Davidson
 Davidson routine will perform the subspace rotation
 perform sub-space diagonalisation
    after iterative eigenvector-optimisation
 modified Broyden-mixing scheme, WC =      100.0
 initial mixing is a Kerker type mixing with AMIX =  0.4000 and BMIX =      1.0000
 Hartree-type preconditioning will be used
 using additional bands           25
 reciprocal scheme for non local part
 use partial core corrections
 calculate Harris-corrections to forces 
   (improved forces if not selfconsistent)
 use gradient corrections 
 use of overlap-Matrix (Vanderbilt PP)
 Fermi-smearing in eV        SIGMA  =   0.03


--------------------------------------------------------------------------------------------------------


  energy-cutoff  :      600.00
  volume of cell :      773.53
      direct lattice vectors                 reciprocal lattice vectors
     5.112382028  0.000000000  0.000000000     0.195603536 -0.112931754  0.000000000
     2.556191014  4.427452710  0.000000000     0.000000000  0.225863508  0.000000000
     0.000000000  0.000000000 34.174242446     0.000000000  0.000000000  0.029261804

  length of vectors
     5.112382028  5.112382028 34.174242446     0.225863508  0.225863508  0.029261804


 
 k-points in units of 2pi/SCALE and weight: K-Points                                
   0.00000000  0.00000000  0.00000000       0.040
   0.03912071 -0.02258635  0.00000000       0.240
   0.07824141 -0.04517270  0.00000000       0.240
   0.07824141  0.00000000  0.00000000       0.240
  -0.07824141  0.09034540  0.00000000       0.240
 
 k-points in reciprocal lattice and weights: K-Points                                
   0.00000000  0.00000000  0.00000000       0.040
   0.20000000  0.00000000  0.00000000       0.240
   0.40000000  0.00000000  0.00000000       0.240
   0.40000000  0.20000000  0.00000000       0.240
  -0.40000000  0.20000000  0.00000000       0.240
 
 position of ions in fractional coordinates (direct lattice) 
   0.16666667  0.16666667  0.43892707
   0.66666667  0.16666667  0.43892707
   0.16666667  0.66666667  0.43892707
   0.66666667  0.66666667  0.43892707
   0.83333333  0.33333333  0.50000000
   0.33333333  0.33333333  0.50000000
   0.83333333  0.83333333  0.50000000
   0.33333333  0.83333333  0.50000000
   0.00000000  0.00000000  0.56107293
   0.50000000  0.00000000  0.56107293
   0.00000000  0.50000000  0.56107293
   0.50000000  0.50000000  0.56107293
   0.00000000  0.00000000  0.64856507
   0.00000000  0.00000000  0.61463103
 
 position of ions in cartesian coordinates  (Angst):
   1.27809551  0.73790879 15.00000000
   3.83428652  0.73790879 15.00000000
   2.55619101  2.95163514 15.00000000
   5.11238203  2.95163514 15.00000000
   5.11238203  1.47581757 17.08712122
   2.55619101  1.47581757 17.08712122
   6.39047753  3.68954393 17.08712122
   3.83428652  3.68954393 17.08712122
   0.00000000  0.00000000 19.17424245
   2.55619101  0.00000000 19.17424245
   1.27809551  2.21372636 19.17424245
   3.83428652  2.21372636 19.17424245
   0.00000000  0.00000000 22.16422000
   0.00000000  0.00000000 21.00455000
 


--------------------------------------------------------------------------------------------------------


 k-point   1 :   0.0000 0.0000 0.0000  plane waves:   25823
 k-point   2 :   0.2000 0.0000 0.0000  plane waves:   25780
 k-point   3 :   0.4000 0.0000 0.0000  plane waves:   25868
 k-point   4 :   0.4000 0.2000 0.0000  plane waves:   25778
 k-point   5 :  -0.4000 0.2000 0.0000  plane waves:   25818

 maximum and minimum number of plane-waves per node :     25868    25778

 maximum number of plane-waves:     25868
 maximum index in each direction: 
   IXMAX=   10   IYMAX=   10   IZMAX=   68
   IXMIN=  -10   IYMIN=  -10   IZMIN=  -68


 serial   3D FFT for wavefunctions
 parallel 3D FFT for charge:
    minimum data exchange during FFTs selected (reduces bandwidth)


 total amount of memory used by VASP MPI-rank0   112955. kBytes
=======================================================================

   base      :      30000. kBytes
   nonl-proj :      61716. kBytes
   fftplans  :       2678. kBytes
   grid      :      12070. kBytes
   one-center:        217. kBytes
   wavefun   :       6274. kBytes
 
     INWAV:  cpu time      0.0000: real time      0.0000
 Broyden mixing: mesh for mixing (old mesh)
   NGX = 21   NGY = 21   NGZ =137
  (NGX  = 64   NGY  = 64   NGZ  =420)
  gives a total of  60417 points

 initial charge density was supplied:
 charge density of overlapping atoms calculated
 number of electron     142.0000000 magnetization 
 keeping initial charge density in first step


--------------------------------------------------------------------------------------------------------


 Maximum index for augmentation-charges          425 (set IRDMAX)


--------------------------------------------------------------------------------------------------------


 First call to EWALD:  gamma=   0.193
 Maximum number of real-space cells 5x 5x 1
 Maximum number of reciprocal cells 2x 2x 9

    FEWALD:  cpu time      0.0005: real time      0.0005


--------------------------------------- Iteration      1(   1)  ---------------------------------------


    POTLOK:  cpu time      0.0314: real time      0.0421
    SETDIJ:  cpu time      0.0019: real time      0.0019
     EDDAV:  cpu time      1.4424: real time      1.4548
       DOS:  cpu time      0.0020: real time      0.0020
    --------------------------------------------
      LOOP:  cpu time      1.4777: real time      1.5009

 eigenvalue-minimisations  :   960
 total energy-change (2. order) : 0.1166340E+04  (-0.6170231E+04)
 number of electron     142.0000000 magnetization 
 augmentation part      142.0000000 magnetization 

 Free energy of the ion-electron system (eV)
  ---------------------------------------------------
  alpha Z        PSCENC =       154.47939101
  Ewald energy   TEWEN  =    132716.21771973
  -Hartree energ DENC   =   -148813.47481018
  -exchange      EXHF   =         0.00000000
  -V(xc)+E(xc)   XCENC  =       585.97540759
  PAW double counting   =     15193.55144181   -16466.02120526
  entropy T*S    EENTRO =        -0.02902826
  eigenvalues    EBANDS =       524.39977913
  atomic energy  EATOM  =     17271.24178720
  Solvation  Ecorr_sol  =         0.00000000
  ---------------------------------------------------
  free energy    TOTEN  =      1166.34048277 eV

  energy without entropy =     1166.36951103  energy(sigma->0) =     1166.35499690


--------------------------------------------------------------------------------------------------------




--------------------------------------- Iteration      1(   2)  ---------------------------------------


     EDDAV:  cpu time      1.5117: real time      1.5270
       DOS:  cpu time      0.0003: real time      0.0003
    --------------------------------------------
      LOOP:  cpu time      1.5120: real time      1.5273

 eigenvalue-minimisations  :   960
 total energy-change (2. order) :-0.1130618E+04  (-0.1072858E+04)
 number of electron     142.0000000 magnetization 
 augmentation part      142.0000000 magnetization 

 Free energy of the ion-electron system (eV)
  ---------------------------------------------------
  alpha Z        PSCENC =       154.47939101
  Ewald energy   TEWEN  =    132716.21771973
  -Hartree energ DENC   =   -148813.47481018
  -exchange      EXHF   =         0.00000000
  -V(xc)+E(xc)   XCENC  =       585.97540759
  PAW double counting   =     15193.55144181   -16466.02120526
  entropy T*S    EENTRO =        -0.01897060
  eigenvalues    EBANDS =      -606.22870870
  atomic energy  EATOM  =     17271.24178720
  Solvation  Ecorr_sol  =         0.00000000
  ---------------------------------------------------
  free energy    TOTEN  =        35.72205260 eV

  energy without entropy =       35.74102320  energy(sigma->0) =       35.73153790


--------------------------------------------------------------------------------------------------------




--------------------------------------- Iteration      1(   3)  ---------------------------------------


     EDDAV:  cpu time      2.5542: real time      2.5775
       DOS:  cpu time      0.0003: real time      0.0003
    --------------------------------------------
      LOOP:  cpu time      2.5545: real time      2.5778

 eigenvalue-minimisations  :  1760
 total energy-change (2. order) :-0.9855008E+02  (-0.9595950E+02)
 number of electron     142.0000000 magnetization 
 augmentation part      142.0000000 magnetization 

 Free energy of the ion-electron system (eV)
  ---------------------------------------------------
  alpha Z        PSCENC =       154.47939101
  Ewald energy   TEWEN  =    132716.21771973
  -Hartree energ DENC   =   -148813.47481018
  -exchange      EXHF   =         0.00000000
  -V(xc)+E(xc)   XCENC  =       585.97540759
  PAW double counting   =     15193.55144181   -16466.02120526
  entropy T*S    EENTRO =        -0.02086130
  eigenvalues    EBANDS =      -704.77689681
  atomic energy  EATOM  =     17271.24178720
  Solvation  Ecorr_sol  =         0.00000000
  ---------------------------------------------------
  free energy    TOTEN  =       -62.82802621 eV

  energy without entropy =      -62.80716491  energy(sigma->0) =      -62.81759556


--------------------------------------------------------------------------------------------------------




--------------------------------------- Iteration      1(   4)  ---------------------------------------


     EDDAV:  cpu time      1.7894: real time      1.8076
       DOS:  cpu time      0.0003: real time      0.0003
    --------------------------------------------
      LOOP:  cpu time      1.7897: real time      1.8080

 eigenvalue-minimisations  :  1120
 total energy-change (2. order) :-0.5098549E+01  (-0.5047316E+01)
 number of electron     142.0000000 magnetization 
 augmentation part      142.0000000 magnetization 

 Free energy of the ion-electron system (eV)
  ---------------------------------------------------
  alpha Z        PSCENC =       154.47939101
  Ewald energy   TEWEN  =    132716.21771973
  -Hartree energ DENC   =   -148813.47481018
  -exchange      EXHF   =         0.00000000
  -V(xc)+E(xc)   XCENC  =       585.97540759
  PAW double counting   =     15193.55144181   -16466.02120526
  entropy T*S    EENTRO =        -0.02236216
  eigenvalues    EBANDS =      -709.87394477
  atomic energy  EATOM  =     17271.24178720
  Solvation  Ecorr_sol  =         0.00000000
  ---------------------------------------------------
  free energy    TOTEN  =       -67.92657503 eV

  energy without entropy =      -67.90421287  energy(sigma->0) =      -67.91539395


--------------------------------------------------------------------------------------------------------




--------------------------------------- Iteration      1(   5)  ---------------------------------------


     EDDAV:  cpu time      2.0190: real time      2.0365
       DOS:  cpu time      0.0003: real time      0.0003
    CHARGE:  cpu time      0.0658: real time      0.0842
    MIXING:  cpu time      0.0010: real time      0.0010
    --------------------------------------------
      LOOP:  cpu time      2.0862: real time      2.1220

 eigenvalue-minimisations  :  1344
 total energy-change (2. order) :-0.1253721E+00  (-0.1251074E+00)
 number of electron     142.0000061 magnetization 
 augmentation part       78.4893973 magnetization 

 Broyden mixing:
  rms(total) = 0.28993E+01    rms(broyden)= 0.28992E+01
  rms(prec ) = 0.29801E+01
  weight for this iteration     100.00

 Free energy of the ion-electron system (eV)
  ---------------------------------------------------
  alpha Z        PSCENC =       154.47939101
  Ewald energy   TEWEN  =    132716.21771973
  -Hartree energ DENC   =   -148813.47481018
  -exchange      EXHF   =         0.00000000
  -V(xc)+E(xc)   XCENC  =       585.97540759
  PAW double counting   =     15193.55144181   -16466.02120526
  entropy T*S    EENTRO =        -0.02294114
  eigenvalues    EBANDS =      -709.99873793
  atomic energy  EATOM  =     17271.24178720
  Solvation  Ecorr_sol  =         0.00000000
  ---------------------------------------------------
  free energy    TOTEN  =       -68.05194717 eV

  energy without entropy =      -68.02900603  energy(sigma->0) =      -68.04047660


--------------------------------------------------------------------------------------------------------




--------------------------------------- Iteration      1(   6)  ---------------------------------------


    POTLOK:  cpu time      0.0225: real time      0.0230
    SETDIJ:  cpu time      0.0017: real time      0.0017
     EDDAV:  cpu time      1.8944: real time      1.9115
       DOS:  cpu time      0.0003: real time      0.0003
    CHARGE:  cpu time      0.0588: real time      0.0592
    MIXING:  cpu time      0.0015: real time      0.0015
    --------------------------------------------
      LOOP:  cpu time      1.9792: real time      1.9973

 eigenvalue-minimisations  :  1280
 total energy-change (2. order) : 0.2198575E+01  (-0.1477200E+02)
 number of electron     142.0000060 magnetization 
 augmentation part       89.0979758 magnetization 

 Broyden mixing:
  rms(total) = 0.19031E+01    rms(broyden)= 0.19030E+01
  rms(prec ) = 0.19684E+01
  weight for this iteration     100.00

 eigenvalues of (default mixing * dielectric matrix)
  average eigenvalue GAMMA=   0.6098
  0.6098

 Free energy of the ion-electron system (eV)
  ---------------------------------------------------
  alpha Z        PSCENC =       154.47939101
  Ewald energy   TEWEN  =    132716.21771973
  -Hartree energ DENC   =   -148413.91568289
  -exchange      EXHF   =         0.00000000
  -V(xc)+E(xc)   XCENC  =       570.26566316
  PAW double counting   =     15450.82241573   -16652.19070211
  entropy T*S    EENTRO =        -0.00935625
  eigenvalues    EBANDS =     -1162.76460751
  atomic energy  EATOM  =     17271.24178720
  Solvation  Ecorr_sol  =         0.00000000
  ---------------------------------------------------
  free energy    TOTEN  =       -65.85337192 eV

  energy without entropy =      -65.84401566  energy(sigma->0) =      -65.84869379


--------------------------------------------------------------------------------------------------------




--------------------------------------- Iteration      1(   7)  ---------------------------------------


    POTLOK:  cpu time      0.0187: real time      0.0191
    SETDIJ:  cpu time      0.0015: real time      0.0015
     EDDAV:  cpu time      1.7039: real time      1.7215
       DOS:  cpu time      0.0003: real time      0.0003
    CHARGE:  cpu time      0.0575: real time      0.0579
    MIXING:  cpu time      0.0008: real time      0.0008
    --------------------------------------------
      LOOP:  cpu time      1.7827: real time      1.8012

 eigenvalue-minimisations  :  1280
 total energy-change (2. order) : 0.9247526E+01  (-0.3832236E+01)
 number of electron     142.0000059 magnetization 
 augmentation part       85.6747861 magnetization 

 Broyden mixing:
  rms(total) = 0.46406E+00    rms(broyden)= 0.46402E+00
  rms(prec ) = 0.48991E+00
  weight for this iteration     100.00

 eigenvalues of (default mixing * dielectric matrix)
  average eigenvalue GAMMA=   0.6615
  0.6615  0.6615

 Free energy of the ion-electron system (eV)
  ---------------------------------------------------
  alpha Z        PSCENC =       154.47939101
  Ewald energy   TEWEN  =    132716.21771973
  -Hartree energ DENC   =   -148597.37013649
  -exchange      EXHF   =         0.00000000
  -V(xc)+E(xc)   XCENC  =       575.61755916
  PAW double counting   =     15825.67748206   -17085.80929527
  entropy T*S    EENTRO =        -0.01615985
  eigenvalues    EBANDS =      -916.64419316
  atomic energy  EATOM  =     17271.24178720
  Solvation  Ecorr_sol  =         0.00000000
  ---------------------------------------------------
  free energy    TOTEN  =       -56.60584560 eV

  energy without entropy =      -56.58968575  energy(sigma->0) =      -56.59776567


--------------------------------------------------------------------------------------------------------




--------------------------------------- Iteration      1(   8)  ---------------------------------------


    POTLOK:  cpu time      0.0203: real time      0.0207
    SETDIJ:  cpu time      0.0014: real time      0.0014
     EDDAV:  cpu time      1.8156: real time      1.8331
       DOS:  cpu time      0.0003: real time      0.0003
    CHARGE:  cpu time      0.0553: real time      0.0558
    MIXING:  cpu time      0.0009: real time      0.0009
    --------------------------------------------
      LOOP:  cpu time      1.8938: real time      1.9123

 eigenvalue-minimisations  :  1472
 total energy-change (2. order) :-0.7362048E-01  (-0.8264683E+00)
 number of electron     142.0000061 magnetization 
 augmentation part       84.7352335 magnetization 

 Broyden mixing:
  rms(total) = 0.37080E+00    rms(broyden)= 0.37079E+00
  rms(prec ) = 0.41376E+00
  weight for this iteration     100.00

 eigenvalues of (default mixing * dielectric matrix)
  average eigenvalue GAMMA=   0.8151
  1.4656  0.5732  0.4066

 Free energy of the ion-electron system (eV)
  ---------------------------------------------------
  alpha Z        PSCENC =       154.47939101
  Ewald energy   TEWEN  =    132716.21771973
  -Hartree energ DENC   =   -148632.75006768
  -exchange      EXHF   =         0.00000000
  -V(xc)+E(xc)   XCENC  =       576.10092630
  PAW double counting   =     16043.80476418   -17318.95196584
  entropy T*S    EENTRO =        -0.02436109
  eigenvalues    EBANDS =      -866.79765990
  atomic energy  EATOM  =     17271.24178720
  Solvation  Ecorr_sol  =         0.00000000
  ---------------------------------------------------
  free energy    TOTEN  =       -56.67946608 eV

  energy without entropy =      -56.65510499  energy(sigma->0) =      -56.66728553


--------------------------------------------------------------------------------------------------------




--------------------------------------- Iteration      1(   9)  ---------------------------------------


    POTLOK:  cpu time      0.0187: real time      0.0191
    SETDIJ:  cpu time      0.0015: real time      0.0015
     EDDAV:  cpu time      2.2269: real time      2.2463
       DOS:  cpu time      0.0003: real time      0.0003
    CHARGE:  cpu time      0.0587: real time      0.0590
    MIXING:  cpu time      0.0010: real time      0.0010
    --------------------------------------------
      LOOP:  cpu time      2.3071: real time      2.3271

 eigenvalue-minimisations  :  1664
 total energy-change (2. order) : 0.9866911E-01  (-0.4146520E+00)
 number of electron     142.0000059 magnetization 
 augmentation part       84.4014553 magnetization 

 Broyden mixing:
  rms(total) = 0.29823E+00    rms(broyden)= 0.29822E+00
  rms(prec ) = 0.33239E+00
  weight for this iteration     100.00

 eigenvalues of (default mixing * dielectric matrix)
  average eigenvalue GAMMA=   0.9098
  2.0627  0.6235  0.6235  0.3297

 Free energy of the ion-electron system (eV)
  ---------------------------------------------------
  alpha Z        PSCENC =       154.47939101
  Ewald energy   TEWEN  =    132716.21771973
  -Hartree energ DENC   =   -148655.92945029
  -exchange      EXHF   =         0.00000000
  -V(xc)+E(xc)   XCENC  =       575.84838533
  PAW double counting   =     16317.64842409   -17606.89770084
  entropy T*S    EENTRO =        -0.01750981
  eigenvalues    EBANDS =      -829.17184340
  atomic energy  EATOM  =     17271.24178720
  Solvation  Ecorr_sol  =         0.00000000
  ---------------------------------------------------
  free energy    TOTEN  =       -56.58079697 eV

  energy without entropy =      -56.56328716  energy(sigma->0) =      -56.57204207


--------------------------------------------------------------------------------------------------------




--------------------------------------- Iteration      1(  10)  ---------------------------------------


    POTLOK:  cpu time      0.0191: real time      0.0195
    SETDIJ:  cpu time      0.0016: real time      0.0016
     EDDAV:  cpu time      2.2819: real time      2.3015
       DOS:  cpu time      0.0004: real time      0.0004
    CHARGE:  cpu time      0.0604: real time      0.0608
    MIXING:  cpu time      0.0011: real time      0.0011
    --------------------------------------------
      LOOP:  cpu time      2.3643: real time      2.3847

 eigenvalue-minimisations  :  1632
 total energy-change (2. order) : 0.1526740E+00  (-0.1456528E+00)
 number of electron     142.0000060 magnetization 
 augmentation part       84.6982516 magnetization 

 Broyden mixing:
  rms(total) = 0.15524E+00    rms(broyden)= 0.15524E+00
  rms(prec ) = 0.16588E+00
  weight for this iteration     100.00

 eigenvalues of (default mixing * dielectric matrix)
  average eigenvalue GAMMA=   0.8895
  2.2036  0.7294  0.7294  0.4945  0.2907

 Free energy of the ion-electron system (eV)
  ---------------------------------------------------
  alpha Z        PSCENC =       154.47939101
  Ewald energy   TEWEN  =    132716.21771973
  -Hartree energ DENC   =   -148647.37175030
  -exchange      EXHF   =         0.00000000
  -V(xc)+E(xc)   XCENC  =       575.16321566
  PAW double counting   =     16462.38920238   -17755.70596318
  entropy T*S    EENTRO =        -0.02638365
  eigenvalues    EBANDS =      -832.81534182
  atomic energy  EATOM  =     17271.24178720
  Solvation  Ecorr_sol  =         0.00000000
  ---------------------------------------------------
  free energy    TOTEN  =       -56.42812297 eV

  energy without entropy =      -56.40173931  energy(sigma->0) =      -56.41493114


--------------------------------------------------------------------------------------------------------




--------------------------------------- Iteration      1(  11)  ---------------------------------------


    POTLOK:  cpu time      0.0201: real time      0.0205
    SETDIJ:  cpu time      0.0015: real time      0.0015
     EDDAV:  cpu time      1.7618: real time      1.7764
       DOS:  cpu time      0.0003: real time      0.0003
    CHARGE:  cpu time      0.0565: real time      0.0568
    MIXING:  cpu time      0.0011: real time      0.0011
    --------------------------------------------
      LOOP:  cpu time      1.8413: real time      1.8567

 eigenvalue-minimisations  :  1216
 total energy-change (2. order) : 0.3213550E-01  (-0.2675503E-01)
 number of electron     142.0000060 magnetization 
 augmentation part       84.9283304 magnetization 

 Broyden mixing:
  rms(total) = 0.64753E-01    rms(broyden)= 0.64747E-01
  rms(prec ) = 0.69464E-01
  weight for this iteration     100.00

 eigenvalues of (default mixing * dielectric matrix)
  average eigenvalue GAMMA=   0.9034
  2.3949  0.8798  0.7272  0.7272  0.3975  0.2937

 Free energy of the ion-electron system (eV)
  ---------------------------------------------------
  alpha Z        PSCENC =       154.47939101
  Ewald energy   TEWEN  =    132716.21771973
  -Hartree energ DENC   =   -148640.31432618
  -exchange      EXHF   =         0.00000000
  -V(xc)+E(xc)   XCENC  =       574.82565654
  PAW double counting   =     16495.48405480   -17788.87423084
  entropy T*S    EENTRO =        -0.02451464
  eigenvalues    EBANDS =      -839.43152508
  atomic energy  EATOM  =     17271.24178720
  Solvation  Ecorr_sol  =         0.00000000
  ---------------------------------------------------
  free energy    TOTEN  =       -56.39598746 eV

  energy without entropy =      -56.37147282  energy(sigma->0) =      -56.38373014


--------------------------------------------------------------------------------------------------------




--------------------------------------- Iteration      1(  12)  ---------------------------------------


    POTLOK:  cpu time      0.0197: real time      0.0202
    SETDIJ:  cpu time      0.0016: real time      0.0016
     EDDAV:  cpu time      2.0816: real time      2.0991
       DOS:  cpu time      0.0003: real time      0.0003
    CHARGE:  cpu time      0.0573: real time      0.0577
    MIXING:  cpu time      0.0009: real time      0.0009
    --------------------------------------------
      LOOP:  cpu time      2.1614: real time      2.1798

 eigenvalue-minimisations  :  1536
 total energy-change (2. order) : 0.6025287E-02  (-0.6574874E-02)
 number of electron     142.0000060 magnetization 
 augmentation part       84.9239039 magnetization 

 Broyden mixing:
  rms(total) = 0.24018E-01    rms(broyden)= 0.24016E-01
  rms(prec ) = 0.26676E-01
  weight for this iteration     100.00

 eigenvalues of (default mixing * dielectric matrix)
  average eigenvalue GAMMA=   0.9091
  2.3728  1.3383  0.6930  0.6930  0.5446  0.3022  0.4197

 Free energy of the ion-electron system (eV)
  ---------------------------------------------------
  alpha Z        PSCENC =       154.47939101
  Ewald energy   TEWEN  =    132716.21771973
  -Hartree energ DENC   =   -148645.80937949
  -exchange      EXHF   =         0.00000000
  -V(xc)+E(xc)   XCENC  =       574.78439981
  PAW double counting   =     16526.66073249   -17821.61224484
  entropy T*S    EENTRO =        -0.02364962
  eigenvalues    EBANDS =      -832.32871847
  atomic energy  EATOM  =     17271.24178720
  Solvation  Ecorr_sol  =         0.00000000
  ---------------------------------------------------
  free energy    TOTEN  =       -56.38996217 eV

  energy without entropy =      -56.36631255  energy(sigma->0) =      -56.37813736


--------------------------------------------------------------------------------------------------------




--------------------------------------- Iteration      1(  13)  ---------------------------------------


    POTLOK:  cpu time      0.0186: real time      0.0190
    SETDIJ:  cpu time      0.0016: real time      0.0016
     EDDAV:  cpu time      1.9784: real time      1.9948
       DOS:  cpu time      0.0003: real time      0.0003
    CHARGE:  cpu time      0.0577: real time      0.0581
    MIXING:  cpu time      0.0013: real time      0.0013
    --------------------------------------------
      LOOP:  cpu time      2.0579: real time      2.0751

 eigenvalue-minimisations  :  1408
 total energy-change (2. order) : 0.3189153E-03  (-0.9552959E-03)
 number of electron     142.0000060 magnetization 
 augmentation part       84.9258652 magnetization 

 Broyden mixing:
  rms(total) = 0.20814E-01    rms(broyden)= 0.20813E-01
  rms(prec ) = 0.22636E-01
  weight for this iteration     100.00

 eigenvalues of (default mixing * dielectric matrix)
  average eigenvalue GAMMA=   0.9446
  2.2889  1.8371  0.9522  0.6785  0.6785  0.3009  0.4103  0.4103

 Free energy of the ion-electron system (eV)
  ---------------------------------------------------
  alpha Z        PSCENC =       154.47939101
  Ewald energy   TEWEN  =    132716.21771973
  -Hartree energ DENC   =   -148648.84700352
  -exchange      EXHF   =         0.00000000
  -V(xc)+E(xc)   XCENC  =       574.81484232
  PAW double counting   =     16521.51807597   -17816.45334006
  entropy T*S    EENTRO =        -0.02393175
  eigenvalues    EBANDS =      -829.33718417
  atomic energy  EATOM  =     17271.24178720
  Solvation  Ecorr_sol  =         0.00000000
  ---------------------------------------------------
  free energy    TOTEN  =       -56.38964326 eV

  energy without entropy =      -56.36571150  energy(sigma->0) =      -56.37767738


--------------------------------------------------------------------------------------------------------




--------------------------------------- Iteration      1(  14)  ---------------------------------------


    POTLOK:  cpu time      0.0195: real time      0.0199
    SETDIJ:  cpu time      0.0014: real time      0.0014
     EDDAV:  cpu time      1.8260: real time      1.8414
       DOS:  cpu time      0.0003: real time      0.0003
    CHARGE:  cpu time      0.0550: real time      0.0554
    MIXING:  cpu time      0.0010: real time      0.0010
    --------------------------------------------
      LOOP:  cpu time      1.9032: real time      1.9194

 eigenvalue-minimisations  :  1376
 total energy-change (2. order) : 0.8410501E-03  (-0.5328825E-03)
 number of electron     142.0000060 magnetization 
 augmentation part       84.9093826 magnetization 

 Broyden mixing:
  rms(total) = 0.83439E-02    rms(broyden)= 0.83434E-02
  rms(prec ) = 0.96730E-02
  weight for this iteration     100.00

 eigenvalues of (default mixing * dielectric matrix)
  average eigenvalue GAMMA=   0.9937
  2.3750  2.2703  1.1256  0.7004  0.7004  0.6745  0.2996  0.4212  0.3762

 Free energy of the ion-electron system (eV)
  ---------------------------------------------------
  alpha Z        PSCENC =       154.47939101
  Ewald energy   TEWEN  =    132716.21771973
  -Hartree energ DENC   =   -148652.64618046
  -exchange      EXHF   =         0.00000000
  -V(xc)+E(xc)   XCENC  =       574.85272915
  PAW double counting   =     16519.78433334   -17814.90571277
  entropy T*S    EENTRO =        -0.02422969
  eigenvalues    EBANDS =      -825.38863972
  atomic energy  EATOM  =     17271.24178720
  Solvation  Ecorr_sol  =         0.00000000
  ---------------------------------------------------
  free energy    TOTEN  =       -56.38880221 eV

  energy without entropy =      -56.36457251  energy(sigma->0) =      -56.37668736


--------------------------------------------------------------------------------------------------------




--------------------------------------- Iteration      1(  15)  ---------------------------------------


    POTLOK:  cpu time      0.0193: real time      0.0198
    SETDIJ:  cpu time      0.0014: real time      0.0014
     EDDAV:  cpu time      1.7931: real time      1.8084
       DOS:  cpu time      0.0003: real time      0.0003
    CHARGE:  cpu time      0.0608: real time      0.0612
    MIXING:  cpu time      0.0012: real time      0.0012
    --------------------------------------------
      LOOP:  cpu time      1.8762: real time      1.8923

 eigenvalue-minimisations  :  1408
 total energy-change (2. order) : 0.3234556E-03  (-0.1108766E-03)
 number of electron     142.0000060 magnetization 
 augmentation part       84.9111204 magnetization 

 Broyden mixing:
  rms(total) = 0.55137E-02    rms(broyden)= 0.55135E-02
  rms(prec ) = 0.61806E-02
  weight for this iteration     100.00

 eigenvalues of (default mixing * dielectric matrix)
  average eigenvalue GAMMA=   0.9911
  2.4282  2.4282  0.9756  0.9756  0.6988  0.6988  0.6076  0.2996  0.4176  0.3810

 Free energy of the ion-electron system (eV)
  ---------------------------------------------------
  alpha Z        PSCENC =       154.47939101
  Ewald energy   TEWEN  =    132716.21771973
  -Hartree energ DENC   =   -148656.68751473
  -exchange      EXHF   =         0.00000000
  -V(xc)+E(xc)   XCENC  =       574.86231111
  PAW double counting   =     16517.02367390   -17812.12450243
  entropy T*S    EENTRO =        -0.02410635
  eigenvalues    EBANDS =      -821.37723819
  atomic energy  EATOM  =     17271.24178720
  Solvation  Ecorr_sol  =         0.00000000
  ---------------------------------------------------
  free energy    TOTEN  =       -56.38847875 eV

  energy without entropy =      -56.36437240  energy(sigma->0) =      -56.37642558


--------------------------------------------------------------------------------------------------------




--------------------------------------- Iteration      1(  16)  ---------------------------------------


    POTLOK:  cpu time      0.0195: real time      0.0199
    SETDIJ:  cpu time      0.0015: real time      0.0015
     EDDAV:  cpu time      1.6166: real time      1.6304
       DOS:  cpu time      0.0003: real time      0.0003
    CHARGE:  cpu time      0.0603: real time      0.0607
    MIXING:  cpu time      0.0013: real time      0.0013
    --------------------------------------------
      LOOP:  cpu time      1.6996: real time      1.7142

 eigenvalue-minimisations  :  1152
 total energy-change (2. order) : 0.5211946E-04  (-0.2876645E-04)
 number of electron     142.0000060 magnetization 
 augmentation part       84.9177425 magnetization 

 Broyden mixing:
  rms(total) = 0.30337E-02    rms(broyden)= 0.30336E-02
  rms(prec ) = 0.37014E-02
  weight for this iteration     100.00

 eigenvalues of (default mixing * dielectric matrix)
  average eigenvalue GAMMA=   1.0325
  2.7028  2.4817  1.5538  0.8929  0.7000  0.7000  0.6617  0.5675  0.2997  0.4090
  0.3881

 Free energy of the ion-electron system (eV)
  ---------------------------------------------------
  alpha Z        PSCENC =       154.47939101
  Ewald energy   TEWEN  =    132716.21771973
  -Hartree energ DENC   =   -148658.19435831
  -exchange      EXHF   =         0.00000000
  -V(xc)+E(xc)   XCENC  =       574.86258139
  PAW double counting   =     16514.63326194   -17809.61785278
  entropy T*S    EENTRO =        -0.02407017
  eigenvalues    EBANDS =      -819.98688665
  atomic energy  EATOM  =     17271.24178720
  Solvation  Ecorr_sol  =         0.00000000
  ---------------------------------------------------
  free energy    TOTEN  =       -56.38842663 eV

  energy without entropy =      -56.36435646  energy(sigma->0) =      -56.37639155


--------------------------------------------------------------------------------------------------------




--------------------------------------- Iteration      1(  17)  ---------------------------------------


    POTLOK:  cpu time      0.0188: real time      0.0191
    SETDIJ:  cpu time      0.0018: real time      0.0018
     EDDAV:  cpu time      1.7300: real time      1.7443
       DOS:  cpu time      0.0003: real time      0.0003
    CHARGE:  cpu time      0.0558: real time      0.0561
    MIXING:  cpu time      0.0010: real time      0.0010
    --------------------------------------------
      LOOP:  cpu time      1.8076: real time      1.8226

 eigenvalue-minimisations  :  1312
 total energy-change (2. order) :-0.3749262E-04  (-0.2022457E-04)
 number of electron     142.0000060 magnetization 
 augmentation part       84.9208785 magnetization 

 Broyden mixing:
  rms(total) = 0.27795E-02    rms(broyden)= 0.27794E-02
  rms(prec ) = 0.32269E-02
  weight for this iteration     100.00

 eigenvalues of (default mixing * dielectric matrix)
  average eigenvalue GAMMA=   1.1433
  3.5478  2.4946  1.9947  1.2895  0.7238  0.7238  0.7187  0.7187  0.2997  0.3809
  0.4135  0.4135

 Free energy of the ion-electron system (eV)
  ---------------------------------------------------
  alpha Z        PSCENC =       154.47939101
  Ewald energy   TEWEN  =    132716.21771973
  -Hartree energ DENC   =   -148659.97237729
  -exchange      EXHF   =         0.00000000
  -V(xc)+E(xc)   XCENC  =       574.86717341
  PAW double counting   =     16513.17633537   -17808.10849667
  entropy T*S    EENTRO =        -0.02405733
  eigenvalues    EBANDS =      -818.26593957
  atomic energy  EATOM  =     17271.24178720
  Solvation  Ecorr_sol  =         0.00000000
  ---------------------------------------------------
  free energy    TOTEN  =       -56.38846413 eV

  energy without entropy =      -56.36440679  energy(sigma->0) =      -56.37643546


--------------------------------------------------------------------------------------------------------




--------------------------------------- Iteration      1(  18)  ---------------------------------------


    POTLOK:  cpu time      0.0193: real time      0.0198
    SETDIJ:  cpu time      0.0015: real time      0.0015
     EDDAV:  cpu time      1.6586: real time      1.6724
       DOS:  cpu time      0.0003: real time      0.0003
    CHARGE:  cpu time      0.0581: real time      0.0584
    MIXING:  cpu time      0.0012: real time      0.0012
    --------------------------------------------
      LOOP:  cpu time      1.7390: real time      1.7537

 eigenvalue-minimisations  :  1184
 total energy-change (2. order) :-0.1898840E-03  (-0.1271953E-04)
 number of electron     142.0000060 magnetization 
 augmentation part       84.9195383 magnetization 

 Broyden mixing:
  rms(total) = 0.12946E-02    rms(broyden)= 0.12945E-02
  rms(prec ) = 0.15515E-02
  weight for this iteration     100.00

 eigenvalues of (default mixing * dielectric matrix)
  average eigenvalue GAMMA=   1.1406
  3.7721  2.5098  2.0385  1.2021  0.9320  0.7073  0.7073  0.7267  0.7267  0.2997
  0.3808  0.4120  0.4120

 Free energy of the ion-electron system (eV)
  ---------------------------------------------------
  alpha Z        PSCENC =       154.47939101
  Ewald energy   TEWEN  =    132716.21771973
  -Hartree energ DENC   =   -148662.15637339
  -exchange      EXHF   =         0.00000000
  -V(xc)+E(xc)   XCENC  =       574.87570130
  PAW double counting   =     16512.29341899   -17807.21985024
  entropy T*S    EENTRO =        -0.02407759
  eigenvalues    EBANDS =      -816.09637103
  atomic energy  EATOM  =     17271.24178720
  Solvation  Ecorr_sol  =         0.00000000
  ---------------------------------------------------
  free energy    TOTEN  =       -56.38865401 eV

  energy without entropy =      -56.36457642  energy(sigma->0) =      -56.37661521


--------------------------------------------------------------------------------------------------------




--------------------------------------- Iteration      1(  19)  ---------------------------------------


    POTLOK:  cpu time      0.0194: real time      0.0200
    SETDIJ:  cpu time      0.0014: real time      0.0014
     EDDAV:  cpu time      2.0118: real time      2.0286
       DOS:  cpu time      0.0003: real time      0.0003
    CHARGE:  cpu time      0.0564: real time      0.0568
    MIXING:  cpu time      0.0015: real time      0.0015
    --------------------------------------------
      LOOP:  cpu time      2.0908: real time      2.1086

 eigenvalue-minimisations  :  1440
 total energy-change (2. order) :-0.1257833E-03  (-0.2174795E-05)
 number of electron     142.0000060 magnetization 
 augmentation part       84.9180191 magnetization 

 Broyden mixing:
  rms(total) = 0.85677E-03    rms(broyden)= 0.85674E-03
  rms(prec ) = 0.10875E-02
  weight for this iteration     100.00

 eigenvalues of (default mixing * dielectric matrix)
  average eigenvalue GAMMA=   1.1758
  3.9260  2.6692  2.0157  1.7973  1.1608  0.7100  0.7100  0.7369  0.7369  0.2997
  0.4841  0.3831  0.4154  0.4154

 Free energy of the ion-electron system (eV)
  ---------------------------------------------------
  alpha Z        PSCENC =       154.47939101
  Ewald energy   TEWEN  =    132716.21771973
  -Hartree energ DENC   =   -148662.72657585
  -exchange      EXHF   =         0.00000000
  -V(xc)+E(xc)   XCENC  =       574.87852893
  PAW double counting   =     16512.38788787   -17807.33298920
  entropy T*S    EENTRO =        -0.02408218
  eigenvalues    EBANDS =      -815.51044731
  atomic energy  EATOM  =     17271.24178720
  Solvation  Ecorr_sol  =         0.00000000
  ---------------------------------------------------
  free energy    TOTEN  =       -56.38877979 eV

  energy without entropy =      -56.36469761  energy(sigma->0) =      -56.37673870


--------------------------------------------------------------------------------------------------------




--------------------------------------- Iteration      1(  20)  ---------------------------------------


    POTLOK:  cpu time      0.0198: real time      0.0201
    SETDIJ:  cpu time      0.0015: real time      0.0015
     EDDAV:  cpu time      1.8611: real time      1.8769
       DOS:  cpu time      0.0003: real time      0.0003
    CHARGE:  cpu time      0.0619: real time      0.0623
    MIXING:  cpu time      0.0020: real time      0.0020
    --------------------------------------------
      LOOP:  cpu time      1.9466: real time      1.9632

 eigenvalue-minimisations  :  1344
 total energy-change (2. order) :-0.1772631E-03  (-0.1400764E-05)
 number of electron     142.0000060 magnetization 
 augmentation part       84.9170590 magnetization 

 Broyden mixing:
  rms(total) = 0.67332E-03    rms(broyden)= 0.67330E-03
  rms(prec ) = 0.82528E-03
  weight for this iteration     100.00

 eigenvalues of (default mixing * dielectric matrix)
  average eigenvalue GAMMA=   1.2732
  4.7110  2.9828  2.3953  1.9709  1.2918  0.8639  0.8639  0.7023  0.7023  0.6843
  0.2997  0.3822  0.4128  0.4128  0.4217

 Free energy of the ion-electron system (eV)
  ---------------------------------------------------
  alpha Z        PSCENC =       154.47939101
  Ewald energy   TEWEN  =    132716.21771973
  -Hartree energ DENC   =   -148663.28347223
  -exchange      EXHF   =         0.00000000
  -V(xc)+E(xc)   XCENC  =       574.88020690
  PAW double counting   =     16512.48661995   -17807.44266770
  entropy T*S    EENTRO =        -0.02407755
  eigenvalues    EBANDS =      -814.94446437
  atomic energy  EATOM  =     17271.24178720
  Solvation  Ecorr_sol  =         0.00000000
  ---------------------------------------------------
  free energy    TOTEN  =       -56.38895706 eV

  energy without entropy =      -56.36487950  energy(sigma->0) =      -56.37691828


--------------------------------------------------------------------------------------------------------




--------------------------------------- Iteration      1(  21)  ---------------------------------------


    POTLOK:  cpu time      0.0202: real time      0.0205
    SETDIJ:  cpu time      0.0016: real time      0.0016
     EDDAV:  cpu time      1.7615: real time      1.7769
       DOS:  cpu time      0.0003: real time      0.0003
    CHARGE:  cpu time      0.0571: real time      0.0575
    MIXING:  cpu time      0.0016: real time      0.0016
    --------------------------------------------
      LOOP:  cpu time      1.8423: real time      1.8585

 eigenvalue-minimisations  :  1376
 total energy-change (2. order) :-0.1844611E-03  (-0.1423841E-05)
 number of electron     142.0000060 magnetization 
 augmentation part       84.9170290 magnetization 

 Broyden mixing:
  rms(total) = 0.46642E-03    rms(broyden)= 0.46641E-03
  rms(prec ) = 0.53265E-03
  weight for this iteration     100.00

 eigenvalues of (default mixing * dielectric matrix)
  average eigenvalue GAMMA=   1.3279
  4.8479  3.4392  2.5016  1.8287  1.6433  1.2469  0.8546  0.8546  0.7058  0.7058
  0.6917  0.2997  0.3821  0.4056  0.4196  0.4196

 Free energy of the ion-electron system (eV)
  ---------------------------------------------------
  alpha Z        PSCENC =       154.47939101
  Ewald energy   TEWEN  =    132716.21771973
  -Hartree energ DENC   =   -148663.80852297
  -exchange      EXHF   =         0.00000000
  -V(xc)+E(xc)   XCENC  =       574.88019666
  PAW double counting   =     16512.62672355   -17807.58761355
  entropy T*S    EENTRO =        -0.02407163
  eigenvalues    EBANDS =      -814.41475152
  atomic energy  EATOM  =     17271.24178720
  Solvation  Ecorr_sol  =         0.00000000
  ---------------------------------------------------
  free energy    TOTEN  =       -56.38914152 eV

  energy without entropy =      -56.36506989  energy(sigma->0) =      -56.37710570


--------------------------------------------------------------------------------------------------------




--------------------------------------- Iteration      1(  22)  ---------------------------------------


    POTLOK:  cpu time      0.0197: real time      0.0202
    SETDIJ:  cpu time      0.0014: real time      0.0014
     EDDAV:  cpu time      1.6112: real time      1.6252
       DOS:  cpu time      0.0003: real time      0.0003
    CHARGE:  cpu time      0.0551: real time      0.0555
    MIXING:  cpu time      0.0016: real time      0.0016
    --------------------------------------------
      LOOP:  cpu time      1.6893: real time      1.7042

 eigenvalue-minimisations  :  1152
 total energy-change (2. order) :-0.9348803E-04  (-0.5819187E-06)
 number of electron     142.0000060 magnetization 
 augmentation part       84.9181702 magnetization 

 Broyden mixing:
  rms(total) = 0.24794E-03    rms(broyden)= 0.24794E-03
  rms(prec ) = 0.29022E-03
  weight for this iteration     100.00

 eigenvalues of (default mixing * dielectric matrix)
  average eigenvalue GAMMA=   1.4383
  6.0969  3.5577  2.6639  2.2874  1.8879  1.3164  0.8915  0.8915  0.7068  0.7068
  0.7978  0.7184  0.2997  0.3821  0.4054  0.4204  0.4204

 Free energy of the ion-electron system (eV)
  ---------------------------------------------------
  alpha Z        PSCENC =       154.47939101
  Ewald energy   TEWEN  =    132716.21771973
  -Hartree energ DENC   =   -148663.97970804
  -exchange      EXHF   =         0.00000000
  -V(xc)+E(xc)   XCENC  =       574.87831174
  PAW double counting   =     16512.69555455   -17807.64865303
  entropy T*S    EENTRO =        -0.02406876
  eigenvalues    EBANDS =      -814.24956942
  atomic energy  EATOM  =     17271.24178720
  Solvation  Ecorr_sol  =         0.00000000
  ---------------------------------------------------
  free energy    TOTEN  =       -56.38923501 eV

  energy without entropy =      -56.36516625  energy(sigma->0) =      -56.37720063


--------------------------------------------------------------------------------------------------------




--------------------------------------- Iteration      1(  23)  ---------------------------------------


    POTLOK:  cpu time      0.0200: real time      0.0203
    SETDIJ:  cpu time      0.0015: real time      0.0015
     EDDAV:  cpu time      1.4151: real time      1.4276
       DOS:  cpu time      0.0003: real time      0.0003
    CHARGE:  cpu time      0.0595: real time      0.0599
    MIXING:  cpu time      0.0021: real time      0.0021
    --------------------------------------------
      LOOP:  cpu time      1.4984: real time      1.5117

 eigenvalue-minimisations  :   992
 total energy-change (2. order) :-0.6055355E-04  (-0.3368737E-06)
 number of electron     142.0000060 magnetization 
 augmentation part       84.9179002 magnetization 

 Broyden mixing:
  rms(total) = 0.10174E-03    rms(broyden)= 0.10174E-03
  rms(prec ) = 0.12672E-03
  weight for this iteration     100.00

 eigenvalues of (default mixing * dielectric matrix)
  average eigenvalue GAMMA=   1.4769
  6.8114  3.4711  2.8346  2.4219  1.8265  1.4627  1.1285  0.8743  0.8743  0.7067
  0.7067  0.8238  0.7136  0.2997  0.3821  0.4056  0.4205  0.4205

 Free energy of the ion-electron system (eV)
  ---------------------------------------------------
  alpha Z        PSCENC =       154.47939101
  Ewald energy   TEWEN  =    132716.21771973
  -Hartree energ DENC   =   -148664.16164038
  -exchange      EXHF   =         0.00000000
  -V(xc)+E(xc)   XCENC  =       574.87920644
  PAW double counting   =     16512.57846494   -17807.52966365
  entropy T*S    EENTRO =        -0.02406990
  eigenvalues    EBANDS =      -814.07049096
  atomic energy  EATOM  =     17271.24178720
  Solvation  Ecorr_sol  =         0.00000000
  ---------------------------------------------------
  free energy    TOTEN  =       -56.38929556 eV

  energy without entropy =      -56.36522566  energy(sigma->0) =      -56.37726061


--------------------------------------------------------------------------------------------------------




--------------------------------------- Iteration      1(  24)  ---------------------------------------


    POTLOK:  cpu time      0.0199: real time      0.0204
    SETDIJ:  cpu time      0.0017: real time      0.0017
     EDDAV:  cpu time      1.3350: real time      1.3457
       DOS:  cpu time      0.0003: real time      0.0003
    CHARGE:  cpu time      0.0586: real time      0.0590
    MIXING:  cpu time      0.0016: real time      0.0016
    --------------------------------------------
      LOOP:  cpu time      1.4171: real time      1.4287

 eigenvalue-minimisations  :   800
 total energy-change (2. order) :-0.1497340E-04  (-0.3153011E-07)
 number of electron     142.0000060 magnetization 
 augmentation part       84.9178256 magnetization 

 Broyden mixing:
  rms(total) = 0.74672E-04    rms(broyden)= 0.74665E-04
  rms(prec ) = 0.93254E-04
  weight for this iteration     100.00

 eigenvalues of (default mixing * dielectric matrix)
  average eigenvalue GAMMA=   1.5822
  7.3854  4.1357  2.9941  2.5300  2.1833  1.8530  1.3213  0.9489  0.9489  0.8571
  0.8571  0.7066  0.7066  0.7060  0.2997  0.3821  0.4055  0.4205  0.4205

 Free energy of the ion-electron system (eV)
  ---------------------------------------------------
  alpha Z        PSCENC =       154.47939101
  Ewald energy   TEWEN  =    132716.21771973
  -Hartree energ DENC   =   -148664.18244718
  -exchange      EXHF   =         0.00000000
  -V(xc)+E(xc)   XCENC  =       574.87936663
  PAW double counting   =     16512.55591523   -17807.50679369
  entropy T*S    EENTRO =        -0.02407019
  eigenvalues    EBANDS =      -814.05017927
  atomic energy  EATOM  =     17271.24178720
  Solvation  Ecorr_sol  =         0.00000000
  ---------------------------------------------------
  free energy    TOTEN  =       -56.38931053 eV

  energy without entropy =      -56.36524034  energy(sigma->0) =      -56.37727543


--------------------------------------------------------------------------------------------------------




--------------------------------------- Iteration      1(  25)  ---------------------------------------


    POTLOK:  cpu time      0.0203: real time      0.0206
    SETDIJ:  cpu time      0.0015: real time      0.0015
     EDDAV:  cpu time      1.2640: real time      1.2749
       DOS:  cpu time      0.0003: real time      0.0003
    CHARGE:  cpu time      0.0558: real time      0.0562
    MIXING:  cpu time      0.0018: real time      0.0018
    --------------------------------------------
      LOOP:  cpu time      1.3438: real time      1.3553

 eigenvalue-minimisations  :   832
 total energy-change (2. order) :-0.1892644E-04  (-0.5505297E-07)
 number of electron     142.0000060 magnetization 
 augmentation part       84.9177941 magnetization 

 Broyden mixing:
  rms(total) = 0.50987E-04    rms(broyden)= 0.50974E-04
  rms(prec ) = 0.57251E-04
  weight for this iteration     100.00

 eigenvalues of (default mixing * dielectric matrix)
  average eigenvalue GAMMA=   1.5985
  7.5604  4.5711  2.8020  2.7178  2.3966  1.7638  1.4851  1.0413  0.9424  0.9424
  0.8501  0.8501  0.7065  0.7065  0.7056  0.2997  0.3821  0.4055  0.4205  0.4205

 Free energy of the ion-electron system (eV)
  ---------------------------------------------------
  alpha Z        PSCENC =       154.47939101
  Ewald energy   TEWEN  =    132716.21771973
  -Hartree energ DENC   =   -148664.18010593
  -exchange      EXHF   =         0.00000000
  -V(xc)+E(xc)   XCENC  =       574.87929891
  PAW double counting   =     16512.56156438   -17807.51263366
  entropy T*S    EENTRO =        -0.02406986
  eigenvalues    EBANDS =      -814.05228126
  atomic energy  EATOM  =     17271.24178720
  Solvation  Ecorr_sol  =         0.00000000
  ---------------------------------------------------
  free energy    TOTEN  =       -56.38932946 eV

  energy without entropy =      -56.36525960  energy(sigma->0) =      -56.37729453


--------------------------------------------------------------------------------------------------------




--------------------------------------- Iteration      1(  26)  ---------------------------------------


    POTLOK:  cpu time      0.0198: real time      0.0203
    SETDIJ:  cpu time      0.0014: real time      0.0015
     EDDAV:  cpu time      1.2266: real time      1.2373
       DOS:  cpu time      0.0003: real time      0.0003
    CHARGE:  cpu time      0.0556: real time      0.0559
    MIXING:  cpu time      0.0020: real time      0.0156
    --------------------------------------------
      LOOP:  cpu time      1.3058: real time      1.3310

 eigenvalue-minimisations  :   800
 total energy-change (2. order) :-0.4387017E-05  (-0.9842992E-08)
 number of electron     142.0000060 magnetization 
 augmentation part       84.9178034 magnetization 

 Broyden mixing:
  rms(total) = 0.24096E-04    rms(broyden)= 0.24078E-04
  rms(prec ) = 0.29380E-04
  weight for this iteration     100.00

 eigenvalues of (default mixing * dielectric matrix)
  average eigenvalue GAMMA=   1.6700
  7.9016  4.9495  3.4408  2.7024  2.3431  2.0538  1.5315  1.5315  0.9716  0.9716
  0.9339  0.8462  0.8462  0.7066  0.7066  0.7057  0.2997  0.3821  0.4205  0.4205
  0.4055

 Free energy of the ion-electron system (eV)
  ---------------------------------------------------
  alpha Z        PSCENC =       154.47939101
  Ewald energy   TEWEN  =    132716.21771973
  -Hartree energ DENC   =   -148664.17139540
  -exchange      EXHF   =         0.00000000
  -V(xc)+E(xc)   XCENC  =       574.87919289
  PAW double counting   =     16512.57514516   -17807.52637852
  entropy T*S    EENTRO =        -0.02406957
  eigenvalues    EBANDS =      -814.06072635
  atomic energy  EATOM  =     17271.24178720
  Solvation  Ecorr_sol  =         0.00000000
  ---------------------------------------------------
  free energy    TOTEN  =       -56.38933385 eV

  energy without entropy =      -56.36526428  energy(sigma->0) =      -56.37729906


--------------------------------------------------------------------------------------------------------




--------------------------------------- Iteration      1(  27)  ---------------------------------------


    POTLOK:  cpu time      0.0195: real time      0.0200
    SETDIJ:  cpu time      0.0014: real time      0.0014
     EDDAV:  cpu time      1.0598: real time      1.0690
       DOS:  cpu time      0.0003: real time      0.0003
    CHARGE:  cpu time      0.0553: real time      0.0556
    MIXING:  cpu time      0.0020: real time      0.0020
    --------------------------------------------
      LOOP:  cpu time      1.1382: real time      1.1482

 eigenvalue-minimisations  :   672
 total energy-change (2. order) :-0.3364912E-05  (-0.8373956E-08)
 number of electron     142.0000060 magnetization 
 augmentation part       84.9178074 magnetization 

 Broyden mixing:
  rms(total) = 0.16497E-04    rms(broyden)= 0.16475E-04
  rms(prec ) = 0.19260E-04
  weight for this iteration     100.00

 eigenvalues of (default mixing * dielectric matrix)
  average eigenvalue GAMMA=   1.7051
  8.1709  5.3650  3.7029  2.6012  2.6012  2.3529  1.7722  1.4276  0.7066  0.7066
  1.0106  0.9331  0.9331  0.8997  0.8471  0.8471  0.7057  0.2997  0.3821  0.4055
  0.4205  0.4205

 Free energy of the ion-electron system (eV)
  ---------------------------------------------------
  alpha Z        PSCENC =       154.47939101
  Ewald energy   TEWEN  =    132716.21771973
  -Hartree energ DENC   =   -148664.16384778
  -exchange      EXHF   =         0.00000000
  -V(xc)+E(xc)   XCENC  =       574.87921067
  PAW double counting   =     16512.57210388   -17807.52330193
  entropy T*S    EENTRO =        -0.02406977
  eigenvalues    EBANDS =      -814.06833023
  atomic energy  EATOM  =     17271.24178720
  Solvation  Ecorr_sol  =         0.00000000
  ---------------------------------------------------
  free energy    TOTEN  =       -56.38933721 eV

  energy without entropy =      -56.36526744  energy(sigma->0) =      -56.37730233


--------------------------------------------------------------------------------------------------------




--------------------------------------- Iteration      1(  28)  ---------------------------------------


    POTLOK:  cpu time      0.0195: real time      0.0198
    SETDIJ:  cpu time      0.0015: real time      0.0015
     EDDAV:  cpu time      1.0947: real time      1.1043
       DOS:  cpu time      0.0003: real time      0.0003
    CHARGE:  cpu time      0.0557: real time      0.0560
    MIXING:  cpu time      0.0021: real time      0.0021
    --------------------------------------------
      LOOP:  cpu time      1.1738: real time      1.1841

 eigenvalue-minimisations  :   768
 total energy-change (2. order) :-0.1142333E-05  (-0.2649503E-08)
 number of electron     142.0000060 magnetization 
 augmentation part       84.9178126 magnetization 

 Broyden mixing:
  rms(total) = 0.12006E-04    rms(broyden)= 0.11979E-04
  rms(prec ) = 0.13613E-04
  weight for this iteration     100.00

 eigenvalues of (default mixing * dielectric matrix)
  average eigenvalue GAMMA=   1.7370
  8.2548  5.6202  3.8880  2.6802  2.6802  2.4367  1.9323  1.7056  1.3401  0.9663
  0.9663  0.7066  0.7066  0.9047  0.8586  0.8586  0.8120  0.7055  0.2997  0.3821
  0.4055  0.4205  0.4205

 Free energy of the ion-electron system (eV)
  ---------------------------------------------------
  alpha Z        PSCENC =       154.47939101
  Ewald energy   TEWEN  =    132716.21771973
  -Hartree energ DENC   =   -148664.16082128
  -exchange      EXHF   =         0.00000000
  -V(xc)+E(xc)   XCENC  =       574.87919017
  PAW double counting   =     16512.57278271   -17807.52396854
  entropy T*S    EENTRO =        -0.02406962
  eigenvalues    EBANDS =      -814.07134974
  atomic energy  EATOM  =     17271.24178720
  Solvation  Ecorr_sol  =         0.00000000
  ---------------------------------------------------
  free energy    TOTEN  =       -56.38933835 eV

  energy without entropy =      -56.36526873  energy(sigma->0) =      -56.37730354


--------------------------------------------------------------------------------------------------------




--------------------------------------- Iteration      1(  29)  ---------------------------------------


    POTLOK:  cpu time      0.0195: real time      0.0199
    SETDIJ:  cpu time      0.0014: real time      0.0014
     EDDAV:  cpu time      1.0640: real time      1.0731
       DOS:  cpu time      0.0003: real time      0.0003
    --------------------------------------------
      LOOP:  cpu time      1.0851: real time      1.0946

 eigenvalue-minimisations  :   704
 total energy-change (2. order) :-0.8156421E-06  (-0.1878154E-08)
 number of electron     142.0000060 magnetization 
 augmentation part       84.9178126 magnetization 

 Free energy of the ion-electron system (eV)
  ---------------------------------------------------
  alpha Z        PSCENC =       154.47939101
  Ewald energy   TEWEN  =    132716.21771973
  -Hartree energ DENC   =   -148664.15705704
  -exchange      EXHF   =         0.00000000
  -V(xc)+E(xc)   XCENC  =       574.87917836
  PAW double counting   =     16512.57202859   -17807.52320590
  entropy T*S    EENTRO =        -0.02406961
  eigenvalues    EBANDS =      -814.07511151
  atomic energy  EATOM  =     17271.24178720
  Solvation  Ecorr_sol  =         0.00000000
  ---------------------------------------------------
  free energy    TOTEN  =       -56.38933917 eV

  energy without entropy =      -56.36526956  energy(sigma->0) =      -56.37730437


--------------------------------------------------------------------------------------------------------




 average (electrostatic) potential at core
  the test charge radii are     0.9430  0.7215  0.6991
  (the norm of the test charge is              1.0000)
       1 -73.3242       2 -73.3242       3 -73.3242       4 -73.3990       5 -73.5529
       6 -73.5931       7 -73.5529       8 -73.5529       9 -74.4098      10 -73.2844
      11 -73.2844      12 -73.2844      13 -80.8209      14 -59.9353
 
 
 
 E-fermi :  -2.3625     XC(G=0):  -3.1708     alpha+bet : -2.6859

 Fermi energy:        -2.3624816758

 k-point     1 :       0.0000    0.0000    0.0000
  band No.  band energies     occupation 
      1     -26.5852      2.00000
      2     -12.2992      2.00000
      3     -10.8872      2.00000
      4      -9.7733      2.00000
      5      -9.3284      2.00000
      6      -9.3284      2.00000
      7      -8.6087      2.00000
      8      -7.5080      2.00000
      9      -7.0498      2.00000
     10      -7.0498      2.00000
     11      -6.9559      2.00000
     12      -6.9113      2.00000
     13      -6.9113      2.00000
     14      -6.7488      2.00000
     15      -6.5709      2.00000
     16      -6.5709      2.00000
     17      -6.4559      2.00000
     18      -6.4535      2.00000
     19      -6.4535      2.00000
     20      -6.3530      2.00000
     21      -6.0667      2.00000
     22      -6.0667      2.00000
     23      -5.6982      2.00000
     24      -5.4647      2.00000
     25      -5.4647      2.00000
     26      -5.4210      2.00000
     27      -5.3127      2.00000
     28      -5.2318      2.00000
     29      -5.2318      2.00000
     30      -5.1894      2.00000
     31      -5.1894      2.00000
     32      -5.1618      2.00000
     33      -5.0964      2.00000
     34      -5.0964      2.00000
     35      -5.0082      2.00000
     36      -4.9862      2.00000
     37      -4.9862      2.00000
     38      -4.9100      2.00000
     39      -4.8420      2.00000
     40      -4.8420      2.00000
     41      -4.7071      2.00000
     42      -4.7071      2.00000
     43      -4.4236      2.00000
     44      -4.4236      2.00000
     45      -4.4052      2.00000
     46      -4.4052      2.00000
     47      -4.4050      2.00000
     48      -4.3367      2.00000
     49      -4.1673      2.00000
     50      -4.1673      2.00000
     51      -4.0707      2.00000
     52      -4.0221      2.00000
     53      -4.0221      2.00000
     54      -3.9525      2.00000
     55      -3.9525      2.00000
     56      -3.9444      2.00000
     57      -3.9130      2.00000
     58      -3.9130      2.00000
     59      -3.8827      2.00000
     60      -3.8827      2.00000
     61      -3.8433      2.00000
     62      -3.8273      2.00000
     63      -3.8273      2.00000
     64      -3.6765      2.00000
     65      -3.6765      2.00000
     66      -3.6546      2.00000
     67      -3.6025      2.00000
     68      -3.2265      2.00000
     69      -2.5441      1.99760
     70      -2.5441      1.99760
     71      -2.2895      0.12565
     72      -1.5531      0.00000
     73      -1.5531      0.00000
     74      -1.2967      0.00000
     75      -1.1477      0.00000
     76      -0.8375      0.00000
     77      -0.8375      0.00000
     78      -0.7646      0.00000
     79       0.8487      0.00000
     80       0.8487      0.00000
     81       1.6312      0.00000
     82       2.1875      0.00000
     83       2.1970      0.00000
     84       2.1970      0.00000
     85       2.3444      0.00000
     86       2.5667      0.00000
     87       2.8876      0.00000
     88       3.0497      0.00000
     89       3.1108      0.00000
     90       3.1108      0.00000
     91       3.7003      0.00000
     92       3.7856      0.00000
     93       3.9412      0.00000
     94       4.1758      0.00000
     95       4.1758      0.00000
     96       4.9245      0.00000

 k-point     2 :       0.2000    0.0000    0.0000
  band No.  band energies     occupation 
      1     -26.5849      2.00000
      2     -12.2643      2.00000
      3     -10.6169      2.00000
      4      -9.6789      2.00000
      5      -9.3574      2.00000
      6      -9.3349      2.00000
      7      -8.4017      2.00000
      8      -7.3158      2.00000
      9      -7.2804      2.00000
     10      -6.9870      2.00000
     11      -6.9226      2.00000
     12      -6.8676      2.00000
     13      -6.7901      2.00000
     14      -6.6688      2.00000
     15      -6.4935      2.00000
     16      -6.4705      2.00000
     17      -6.4111      2.00000
     18      -6.3424      2.00000
     19      -6.3241      2.00000
     20      -6.2353      2.00000
     21      -6.0338      2.00000
     22      -6.0174      2.00000
     23      -5.6959      2.00000
     24      -5.5012      2.00000
     25      -5.4402      2.00000
     26      -5.4305      2.00000
     27      -5.3867      2.00000
     28      -5.3075      2.00000
     29      -5.2792      2.00000
     30      -5.2209      2.00000
     31      -5.2135      2.00000
     32      -5.1338      2.00000
     33      -5.1336      2.00000
     34      -5.0987      2.00000
     35      -5.0623      2.00000
     36      -5.0369      2.00000
     37      -5.0053      2.00000
     38      -4.9565      2.00000
     39      -4.9343      2.00000
     40      -4.8892      2.00000
     41      -4.7952      2.00000
     42      -4.7235      2.00000
     43      -4.5640      2.00000
     44      -4.5352      2.00000
     45      -4.5006      2.00000
     46      -4.4589      2.00000
     47      -4.4319      2.00000
     48      -4.3710      2.00000
     49      -4.3573      2.00000
     50      -4.2772      2.00000
     51      -4.2410      2.00000
     52      -4.1816      2.00000
     53      -4.1656      2.00000
     54      -4.0895      2.00000
     55      -4.0636      2.00000
     56      -4.0477      2.00000
     57      -4.0376      2.00000
     58      -4.0067      2.00000
     59      -4.0064      2.00000
     60      -3.9516      2.00000
     61      -3.9356      2.00000
     62      -3.9203      2.00000
     63      -3.8880      2.00000
     64      -3.8502      2.00000
     65      -3.8327      2.00000
     66      -3.7905      2.00000
     67      -3.7514      2.00000
     68      -3.6667      2.00000
     69      -3.0036      2.00000
     70      -2.5535      1.99831
     71      -2.4449      1.90988
     72      -2.3712      1.15999
     73      -1.6473      0.00000
     74      -1.5189      0.00000
     75      -0.9045      0.00000
     76      -0.2353      0.00000
     77      -0.1942      0.00000
     78       0.1929      0.00000
     79       1.1164      0.00000
     80       1.1254      0.00000
     81       1.9434      0.00000
     82       2.5006      0.00000
     83       2.6575      0.00000
     84       2.6801      0.00000
     85       2.8707      0.00000
     86       2.9891      0.00000
     87       3.1979      0.00000
     88       3.2150      0.00000
     89       3.3186      0.00000
     90       3.4488      0.00000
     91       4.0209      0.00000
     92       4.1345      0.00000
     93       4.2738      0.00000
     94       4.6566      0.00000
     95       4.7279      0.00000
     96       5.2403      0.00000

 k-point     3 :       0.4000    0.0000    0.0000
  band No.  band energies     occupation 
      1     -26.5844      2.00000
      2     -12.2145      2.00000
      3      -9.9666      2.00000
      4      -9.4462      2.00000
      5      -9.3474      2.00000
      6      -9.3455      2.00000
      7      -8.3148      2.00000
      8      -7.7534      2.00000
      9      -7.0574      2.00000
     10      -6.8440      2.00000
     11      -6.7622      2.00000
     12      -6.7258      2.00000
     13      -6.5354      2.00000
     14      -6.4745      2.00000
     15      -6.3815      2.00000
     16      -6.2328      2.00000
     17      -6.2092      2.00000
     18      -6.1514      2.00000
     19      -6.1495      2.00000
     20      -5.9895      2.00000
     21      -5.8956      2.00000
     22      -5.8678      2.00000
     23      -5.7916      2.00000
     24      -5.6911      2.00000
     25      -5.6447      2.00000
     26      -5.6133      2.00000
     27      -5.5559      2.00000
     28      -5.5088      2.00000
     29      -5.3929      2.00000
     30      -5.3853      2.00000
     31      -5.3441      2.00000
     32      -5.2376      2.00000
     33      -5.1988      2.00000
     34      -5.1409      2.00000
     35      -5.0867      2.00000
     36      -5.0340      2.00000
     37      -4.9998      2.00000
     38      -4.9864      2.00000
     39      -4.9396      2.00000
     40      -4.9109      2.00000
     41      -4.8936      2.00000
     42      -4.8437      2.00000
     43      -4.8413      2.00000
     44      -4.8208      2.00000
     45      -4.8015      2.00000
     46      -4.7573      2.00000
     47      -4.6285      2.00000
     48      -4.5878      2.00000
     49      -4.5630      2.00000
     50      -4.5348      2.00000
     51      -4.4733      2.00000
     52      -4.4376      2.00000
     53      -4.3698      2.00000
     54      -4.3338      2.00000
     55      -4.3327      2.00000
     56      -4.3124      2.00000
     57      -4.1984      2.00000
     58      -4.1827      2.00000
     59      -4.1666      2.00000
     60      -4.1451      2.00000
     61      -4.1051      2.00000
     62      -4.0645      2.00000
     63      -3.9544      2.00000
     64      -3.9498      2.00000
     65      -3.9089      2.00000
     66      -3.8788      2.00000
     67      -3.8559      2.00000
     68      -3.7871      2.00000
     69      -3.5007      2.00000
     70      -2.4354      1.87394
     71      -2.3818      1.34274
     72      -2.2474      0.02777
     73      -1.5686      0.00000
     74      -1.4024      0.00000
     75      -1.0581      0.00000
     76      -0.0355      0.00000
     77       0.0477      0.00000
     78       0.6612      0.00000
     79       1.3485      0.00000
     80       1.9234      0.00000
     81       2.4844      0.00000
     82       2.8838      0.00000
     83       3.4344      0.00000
     84       3.6150      0.00000
     85       3.6683      0.00000
     86       3.7919      0.00000
     87       4.1210      0.00000
     88       4.1287      0.00000
     89       4.2723      0.00000
     90       4.5996      0.00000
     91       4.9254      0.00000
     92       4.9677      0.00000
     93       5.0878      0.00000
     94       5.1964      0.00000
     95       5.3225      0.00000
     96       5.4946      0.00000

 k-point     4 :       0.4000    0.2000    0.0000
  band No.  band energies     occupation 
      1     -26.5845      2.00000
      2     -12.2238      2.00000
      3     -10.1356      2.00000
      4      -9.5010      2.00000
      5      -9.3879      2.00000
      6      -9.3528      2.00000
      7      -7.9772      2.00000
      8      -7.5882      2.00000
      9      -7.5144      2.00000
     10      -6.9026      2.00000
     11      -6.8169      2.00000
     12      -6.7368      2.00000
     13      -6.6166      2.00000
     14      -6.4600      2.00000
     15      -6.3432      2.00000
     16      -6.3064      2.00000
     17      -6.2706      2.00000
     18      -6.2091      2.00000
     19      -6.1665      2.00000
     20      -6.0677      2.00000
     21      -5.9370      2.00000
     22      -5.9142      2.00000
     23      -5.7331      2.00000
     24      -5.6278      2.00000
     25      -5.6021      2.00000
     26      -5.5513      2.00000
     27      -5.5195      2.00000
     28      -5.4449      2.00000
     29      -5.3747      2.00000
     30      -5.3489      2.00000
     31      -5.2926      2.00000
     32      -5.2550      2.00000
     33      -5.1736      2.00000
     34      -5.1453      2.00000
     35      -5.1232      2.00000
     36      -5.0916      2.00000
     37      -5.0350      2.00000
     38      -4.9602      2.00000
     39      -4.9276      2.00000
     40      -4.9007      2.00000
     41      -4.8474      2.00000
     42      -4.7904      2.00000
     43      -4.7672      2.00000
     44      -4.7098      2.00000
     45      -4.6761      2.00000
     46      -4.6572      2.00000
     47      -4.6195      2.00000
     48      -4.5716      2.00000
     49      -4.5567      2.00000
     50      -4.5485      2.00000
     51      -4.4274      2.00000
     52      -4.3809      2.00000
     53      -4.3498      2.00000
     54      -4.3289      2.00000
     55      -4.2485      2.00000
     56      -4.2231      2.00000
     57      -4.1580      2.00000
     58      -4.1185      2.00000
     59      -4.0780      2.00000
     60      -4.0423      2.00000
     61      -4.0053      2.00000
     62      -3.9806      2.00000
     63      -3.9457      2.00000
     64      -3.9340      2.00000
     65      -3.9061      2.00000
     66      -3.8673      2.00000
     67      -3.7964      2.00000
     68      -3.6119      2.00000
     69      -3.5815      2.00000
     70      -3.0558      2.00000
     71      -3.0198      2.00000
     72      -2.1382      0.00049
     73      -1.0832      0.00000
     74      -1.0215      0.00000
     75      -0.5429      0.00000
     76      -0.1705      0.00000
     77       0.4033      0.00000
     78       0.5527      0.00000
     79       0.8189      0.00000
     80       1.3319      0.00000
     81       2.5020      0.00000
     82       2.7160      0.00000
     83       2.9711      0.00000
     84       3.1326      0.00000
     85       3.4798      0.00000
     86       3.6161      0.00000
     87       3.8164      0.00000
     88       3.9294      0.00000
     89       4.3430      0.00000
     90       4.5541      0.00000
     91       4.6624      0.00000
     92       4.7788      0.00000
     93       4.8112      0.00000
     94       5.2579      0.00000
     95       5.3269      0.00000
     96       5.8165      0.00000

 k-point     5 :      -0.4000    0.2000    0.0000
  band No.  band energies     occupation 
      1     -26.5842      2.00000
      2     -12.2012      2.00000
      3      -9.7921      2.00000
      4      -9.4257      2.00000
      5      -9.3695      2.00000
      6      -8.8175      2.00000
      7      -8.6560      2.00000
      8      -7.6526      2.00000
      9      -7.2362      2.00000
     10      -7.1746      2.00000
     11      -6.6662      2.00000
     12      -6.4583      2.00000
     13      -6.4024      2.00000
     14      -6.3509      2.00000
     15      -6.2772      2.00000
     16      -6.1360      2.00000
     17      -6.1166      2.00000
     18      -6.0405      2.00000
     19      -6.0247      2.00000
     20      -5.9500      2.00000
     21      -5.9265      2.00000
     22      -5.8923      2.00000
     23      -5.8132      2.00000
     24      -5.7673      2.00000
     25      -5.7551      2.00000
     26      -5.7061      2.00000
     27      -5.6551      2.00000
     28      -5.5636      2.00000
     29      -5.4470      2.00000
     30      -5.4181      2.00000
     31      -5.3917      2.00000
     32      -5.3379      2.00000
     33      -5.3092      2.00000
     34      -5.2666      2.00000
     35      -5.2243      2.00000
     36      -5.1814      2.00000
     37      -5.1225      2.00000
     38      -5.0666      2.00000
     39      -5.0315      2.00000
     40      -4.9995      2.00000
     41      -4.9380      2.00000
     42      -4.9302      2.00000
     43      -4.9098      2.00000
     44      -4.8389      2.00000
     45      -4.7858      2.00000
     46      -4.6815      2.00000
     47      -4.5996      2.00000
     48      -4.5723      2.00000
     49      -4.5441      2.00000
     50      -4.4859      2.00000
     51      -4.4494      2.00000
     52      -4.4416      2.00000
     53      -4.4116      2.00000
     54      -4.3505      2.00000
     55      -4.2937      2.00000
     56      -4.2740      2.00000
     57      -4.2111      2.00000
     58      -4.1826      2.00000
     59      -4.1234      2.00000
     60      -4.1117      2.00000
     61      -4.0990      2.00000
     62      -4.0274      2.00000
     63      -4.0093      2.00000
     64      -3.9827      2.00000
     65      -3.9490      2.00000
     66      -3.9281      2.00000
     67      -3.8886      2.00000
     68      -3.8680      2.00000
     69      -3.5859      2.00000
     70      -3.4335      2.00000
     71      -2.8746      2.00000
     72      -2.0784      0.00005
     73      -1.3472      0.00000
     74      -0.7230      0.00000
     75      -0.2246      0.00000
     76      -0.0789      0.00000
     77       0.3842      0.00000
     78       1.2777      0.00000
     79       1.3352      0.00000
     80       1.9443      0.00000
     81       2.6268      0.00000
     82       2.7178      0.00000
     83       3.2059      0.00000
     84       3.6576      0.00000
     85       3.7563      0.00000
     86       4.1938      0.00000
     87       4.3286      0.00000
     88       4.3728      0.00000
     89       4.5429      0.00000
     90       4.6968      0.00000
     91       4.7266      0.00000
     92       4.9698      0.00000
     93       5.0381      0.00000
     94       5.0444      0.00000
     95       5.1062      0.00000
     96       5.2271      0.00000


--------------------------------------------------------------------------------------------------------


 soft charge-density along one line, spin component           1
         0         1         2         3         4         5         6         7         8         9
 total charge-density along one line
 
 pseudopotential strength for first ion, spin component:           1
 -9.915  -0.001  -0.004  -0.005  -0.000   0.578   0.001   0.003
 -0.001  -9.877  -0.001   0.003  -0.003   0.001   0.547   0.001
 -0.004  -0.001  -9.869  -0.002  -0.002   0.003   0.001   0.540
 -0.005   0.003  -0.002  -9.874  -0.001   0.004  -0.002   0.002
 -0.000  -0.003  -0.002  -0.001  -9.915   0.000   0.002   0.002
  0.578   0.001   0.003   0.004   0.000   6.582  -0.001  -0.002
  0.001   0.547   0.001  -0.002   0.002  -0.001   6.604  -0.001
  0.003   0.001   0.540   0.002   0.002  -0.002  -0.001   6.610
  0.004  -0.002   0.002   0.545   0.001  -0.003   0.002  -0.001
  0.000   0.002   0.002   0.001   0.578  -0.000  -0.002  -0.001
 -0.001   0.000  -0.008   0.001  -0.000   0.000  -0.000   0.003
 -0.001   0.001  -0.014   0.001  -0.001   0.001  -0.000   0.005
  0.001  -0.010  -0.000   0.000  -0.000  -0.001   0.010   0.000
  0.000   0.001  -0.009   0.001   0.000  -0.000  -0.000   0.009
  0.001   0.000  -0.001  -0.009   0.001  -0.000  -0.000   0.000
  0.001  -0.011  -0.000   0.000  -0.000  -0.001   0.012   0.000
  0.000   0.001  -0.010   0.001   0.000  -0.000  -0.000   0.011
  0.001   0.000  -0.001  -0.011   0.001  -0.000  -0.000   0.000
 total augmentation occupancy for first ion, spin component:           1
  1.908  -0.000  -0.002  -0.005  -0.001  -0.016   0.000   0.000   0.005   0.000  -0.000  -0.000  -0.001   0.001   0.006   0.001
 -0.000   1.924  -0.002   0.001  -0.005  -0.000  -0.032   0.000  -0.000   0.005  -0.004   0.000   0.007   0.000   0.002  -0.009
 -0.002  -0.002   1.926  -0.003  -0.001   0.000   0.000  -0.028   0.001   0.000  -0.004   0.013  -0.001   0.053  -0.003  -0.000
 -0.005   0.001  -0.003   1.925  -0.000   0.005  -0.000   0.001  -0.032  -0.000  -0.008   0.000   0.002   0.001   0.009  -0.000
 -0.001  -0.005  -0.001  -0.000   1.909   0.000   0.005   0.000   0.000  -0.016  -0.000  -0.000   0.008   0.001  -0.001  -0.001
 -0.016  -0.000   0.000   0.005   0.000   0.014  -0.000  -0.000   0.000  -0.000  -0.000   0.000   0.000  -0.000   0.003  -0.000
  0.000  -0.032   0.000  -0.000   0.005  -0.000   0.010  -0.000  -0.000   0.000   0.001   0.000   0.017  -0.000  -0.000  -0.001
  0.000   0.000  -0.028   0.001   0.000  -0.000  -0.000   0.013  -0.000  -0.000  -0.043   0.002   0.000   0.022   0.001  -0.000
  0.005  -0.000   0.001  -0.032   0.000   0.000  -0.000  -0.000   0.010  -0.000   0.001   0.000  -0.000  -0.000   0.017   0.000
  0.000   0.005   0.000  -0.000  -0.016  -0.000   0.000  -0.000  -0.000   0.014  -0.000   0.000   0.002  -0.000   0.000  -0.000
 -0.000  -0.004  -0.004  -0.008  -0.000  -0.000   0.001  -0.043   0.001  -0.000   1.699  -0.135  -0.002   0.131  -0.003   0.000
 -0.000   0.000   0.013   0.000  -0.000   0.000   0.000   0.002   0.000   0.000  -0.135   0.016  -0.000  -0.022  -0.000  -0.000
 -0.001   0.007  -0.001   0.002   0.008   0.000   0.017   0.000  -0.000   0.002  -0.002  -0.000   0.209   0.001   0.000  -0.013
  0.001   0.000   0.053   0.001   0.001  -0.000  -0.000   0.022  -0.000  -0.000   0.131  -0.022   0.001   0.127   0.001  -0.000
  0.006   0.002  -0.003   0.009  -0.001   0.003  -0.000   0.001   0.017   0.000  -0.003  -0.000   0.000   0.001   0.209   0.000
  0.001  -0.009  -0.000  -0.000  -0.001  -0.000  -0.001  -0.000   0.000  -0.000   0.000  -0.000  -0.013  -0.000   0.000   0.001
  0.000   0.000  -0.014   0.001   0.000   0.000  -0.000  -0.001  -0.000   0.000  -0.019   0.002  -0.000  -0.009  -0.000   0.000
 -0.000  -0.000  -0.000  -0.009   0.001  -0.000   0.000  -0.000  -0.001  -0.000   0.000  -0.000   0.000  -0.000  -0.013  -0.000


------------------------ aborting loop because EDIFF is reached ----------------------------------------


    CHARGE:  cpu time      0.0557: real time      0.0561
    FORLOC:  cpu time      0.0021: real time      0.0021
    FORNL :  cpu time      0.1555: real time      0.1569
    STRESS:  cpu time      1.5662: real time      1.5785
    FORCOR:  cpu time      0.0187: real time      0.0188
    FORHAR:  cpu time      0.0048: real time      0.0048
    MIXING:  cpu time      0.0019: real time      0.0020
    OFIELD:  cpu time      0.0000: real time      0.0000

  FORCE on cell =-STRESS in cart. coord.  units (eV):
  Direction    XX          YY          ZZ          XY          YZ          ZX
  --------------------------------------------------------------------------------------
  Alpha Z   154.47939   154.47939   154.47939
  Ewald  141442.11839141442.11839************    -0.00000    -0.00000    -0.00000
  Hartree145615.42167145615.42167************     0.00000    -0.00000    -0.00000
  E(xc)    -814.53787  -814.53773  -814.93307    -0.00011     0.00000     0.00000
  Local  ************************291294.21115     0.00208    -0.00000    -0.00000
  n-local  -272.24876  -283.92189  -292.10022    -6.55337    -0.04373    -0.02931
  augment  1142.15778  1142.15990  1143.21673    -0.00183     0.00001     0.00001
  Kinetic  1268.00031  1270.78921  1248.62861     2.10720    -0.96825     1.22312
  Fock        0.00000     0.00000     0.00000     0.00000     0.00000     0.00000
  -------------------------------------------------------------------------------------
  Total      -1.55435    -1.55435    -1.22286    -0.00000     0.00000    -0.00000
  in kB      -3.21947    -3.21947    -2.53286    -0.00000     0.00000    -0.00000
  external pressure =       -2.99 kB  Pullay stress =        0.00 kB


 VOLUME and BASIS-vectors are now :
 -----------------------------------------------------------------------------
  energy-cutoff  :      600.00
  volume of cell :      773.53
      direct lattice vectors                 reciprocal lattice vectors
     5.112382028  0.000000000  0.000000000     0.195603536 -0.112931754  0.000000000
     2.556191014  4.427452710  0.000000000     0.000000000  0.225863508  0.000000000
     0.000000000  0.000000000 34.174242446     0.000000000  0.000000000  0.029261804

  length of vectors
     5.112382028  5.112382028 34.174242446     0.225863508  0.225863508  0.029261804


 FORCES acting on ions
    electron-ion (+dipol)            ewald-force                    non-local-force                 convergence-correction
 -----------------------------------------------------------------------------------------------
   -.363E+00 -.210E+00 0.341E+04   0.135E+00 0.782E-01 -.341E+04   0.209E+00 0.120E+00 -.203E+01   0.127E-04 0.734E-05 -.347E-04
   0.363E+00 -.210E+00 0.341E+04   -.135E+00 0.782E-01 -.341E+04   -.209E+00 0.120E+00 -.203E+01   -.127E-04 0.734E-05 -.347E-04
   0.265E-05 0.419E+00 0.341E+04   0.311E-11 -.156E+00 -.341E+04   0.144E-17 -.241E+00 -.203E+01   -.968E-10 -.147E-04 -.347E-04
   0.256E-05 0.148E-05 0.342E+04   0.315E-11 0.163E-11 -.341E+04   0.366E-17 0.176E-17 -.260E+01   -.492E-11 -.289E-11 -.293E-04
   -.243E-05 -.352E+01 0.322E+03   -.453E-11 0.302E+01 -.322E+03   -.404E-17 0.397E+00 -.431E+00   0.578E-12 -.141E-05 0.639E-04
   -.228E-05 -.132E-05 0.318E+03   -.475E-11 -.279E-11 -.318E+03   -.597E-17 -.243E-17 0.566E+00   0.671E-12 0.314E-12 0.601E-04
   0.305E+01 0.176E+01 0.322E+03   -.262E+01 -.151E+01 -.322E+03   -.344E+00 -.199E+00 -.431E+00   0.122E-05 0.705E-06 0.639E-04
   -.305E+01 0.176E+01 0.322E+03   0.262E+01 -.151E+01 -.322E+03   0.344E+00 -.199E+00 -.431E+00   -.122E-05 0.705E-06 0.639E-04
   0.597E-06 0.345E-06 -.265E+04   0.145E-11 0.111E-11 0.265E+04   0.119E-16 -.776E-17 0.161E+01   0.880E-11 0.505E-11 -.357E-04
   0.256E-06 0.213E-01 -.281E+04   0.149E-11 0.111E-11 0.280E+04   0.779E-17 0.269E-02 0.349E+01   -.404E-11 0.278E-05 0.429E-04
   0.185E-01 -.107E-01 -.281E+04   0.148E-11 0.109E-11 0.280E+04   0.233E-02 -.134E-02 0.349E+01   0.240E-05 -.139E-05 0.429E-04
   -.185E-01 -.107E-01 -.281E+04   0.152E-11 0.111E-11 0.280E+04   -.233E-02 -.134E-02 0.349E+01   -.240E-05 -.139E-05 0.429E-04
   -.908E-05 -.525E-05 -.245E+04   -.875E-14 -.903E-14 0.251E+04   -.897E-20 -.185E-19 -.600E+02   -.765E-12 -.475E-12 -.123E-03
   0.203E-05 0.117E-05 -.139E+04   0.167E-13 0.131E-14 0.137E+04   0.197E-18 -.178E-18 0.182E+02   -.306E-12 -.168E-12 -.441E-04
 -----------------------------------------------------------------------------------------------
   -.458E-05 -.264E-05 0.391E+02   -.113E-12 0.138E-13 -.227E-12   -.553E-16 0.414E-16 -.391E+02   -.960E-11 -.614E-11 0.440E-04
 
 
 POSITION                                       TOTAL-FORCE (eV/Angst)
 -----------------------------------------------------------------------------------
      1.27810      0.73791     15.00000        -0.018696     -0.010794      0.042645
      3.83429      0.73791     15.00000         0.018696     -0.010794      0.042645
      2.55619      2.95164     15.00000        -0.000000      0.021588      0.042645
      5.11238      2.95164     15.00000        -0.000000     -0.000000      0.125260
      5.11238      1.47582     17.08712        -0.000000     -0.096938      0.024938
      2.55619      1.47582     17.08712        -0.000000      0.000000      0.107357
      6.39048      3.68954     17.08712         0.083951      0.048469      0.024938
      3.83429      3.68954     17.08712        -0.083951      0.048469      0.024938
      0.00000      0.00000     19.17424        -0.000000     -0.000000      0.031154
      2.55619      0.00000     19.17424        -0.000000      0.023998     -0.199479
      1.27810      2.21373     19.17424         0.020783     -0.011999     -0.199479
      3.83429      2.21373     19.17424        -0.020783     -0.011999     -0.199479
      0.00000      0.00000     22.16422        -0.000000      0.000000      0.045600
      0.00000      0.00000     21.00455        -0.000000     -0.000000      0.086317
 -----------------------------------------------------------------------------------
    total drift:                               -0.000005     -0.000003      0.001811


--------------------------------------------------------------------------------------------------------



  FREE ENERGIE OF THE ION-ELECTRON SYSTEM (eV)
  ---------------------------------------------------
  free  energy   TOTEN  =       -56.38933917 eV

  energy  without entropy=      -56.36526956  energy(sigma->0) =      -56.37730437
 


--------------------------------------------------------------------------------------------------------


    POTLOK:  cpu time      0.0219: real time      0.0245


--------------------------------------------------------------------------------------------------------




--------------------------------------------------------------------------------------------------------


    WAVPRE:  cpu time      0.9459: real time      1.1857
    FEWALD:  cpu time      0.0004: real time      0.0004
    ORTHCH:  cpu time      0.1569: real time      0.1587
     LOOP+:  cpu time     54.2987: real time     55.0598


--------------------------------------- Iteration      2(   1)  ---------------------------------------


    POTLOK:  cpu time      0.0205: real time      0.0209
    SETDIJ:  cpu time      0.0024: real time      0.0024
     EDDAV:  cpu time      1.3734: real time      1.3898
       DOS:  cpu time      0.0007: real time      0.0007
    CHARGE:  cpu time      0.0564: real time      0.0568
    MIXING:  cpu time      0.0007: real time      0.0007
    --------------------------------------------
      LOOP:  cpu time      1.4542: real time      1.4713

 eigenvalue-minimisations  :   960
 total energy-change (2. order) :-0.1586331E-03  (-0.5153484E-02)
 number of electron     142.0000061 magnetization 
 augmentation part       84.9211560 magnetization 

 Broyden mixing:
  rms(total) = 0.79885E-02    rms(broyden)= 0.79771E-02
  rms(prec ) = 0.81352E-02
  weight for this iteration     100.00

 Free energy of the ion-electron system (eV)
  ---------------------------------------------------
  alpha Z        PSCENC =       154.47939101
  Ewald energy   TEWEN  =    132705.00313559
  -Hartree energ DENC   =   -148652.84291867
  -exchange      EXHF   =         0.00000000
  -V(xc)+E(xc)   XCENC  =       574.87815172
  PAW double counting   =     16512.57238035   -17807.52359252
  entropy T*S    EENTRO =        -0.02418233
  eigenvalues    EBANDS =      -814.17364935
  atomic energy  EATOM  =     17271.24178720
  Solvation  Ecorr_sol  =         0.00000000
  ---------------------------------------------------
  free energy    TOTEN  =       -56.38949699 eV

  energy without entropy =      -56.36531466  energy(sigma->0) =      -56.37740582


--------------------------------------------------------------------------------------------------------




--------------------------------------- Iteration      2(   2)  ---------------------------------------


    POTLOK:  cpu time      0.0205: real time      0.0233
    SETDIJ:  cpu time      0.0065: real time      0.0065
     EDDAV:  cpu time      1.8141: real time      1.8292
       DOS:  cpu time      0.0003: real time      0.0003
    CHARGE:  cpu time      0.0595: real time      0.0599
    MIXING:  cpu time      0.0009: real time      0.0009
    --------------------------------------------
      LOOP:  cpu time      1.9019: real time      1.9203

 eigenvalue-minimisations  :  1184
 total energy-change (2. order) :-0.5115733E-04  (-0.1066168E-03)
 number of electron     142.0000061 magnetization 
 augmentation part       84.9169698 magnetization 

 Broyden mixing:
  rms(total) = 0.63615E-02    rms(broyden)= 0.63605E-02
  rms(prec ) = 0.65409E-02
  weight for this iteration     100.00

 eigenvalues of (default mixing * dielectric matrix)
  average eigenvalue GAMMA=   0.6901
  0.6901

 Free energy of the ion-electron system (eV)
  ---------------------------------------------------
  alpha Z        PSCENC =       154.47939101
  Ewald energy   TEWEN  =    132705.00313559
  -Hartree energ DENC   =   -148653.36357026
  -exchange      EXHF   =         0.00000000
  -V(xc)+E(xc)   XCENC  =       574.88339849
  PAW double counting   =     16513.07284855   -17808.05398997
  entropy T*S    EENTRO =        -0.02412855
  eigenvalues    EBANDS =      -813.62842020
  atomic energy  EATOM  =     17271.24178720
  Solvation  Ecorr_sol  =         0.00000000
  ---------------------------------------------------
  free energy    TOTEN  =       -56.38954814 eV

  energy without entropy =      -56.36541959  energy(sigma->0) =      -56.37748387


--------------------------------------------------------------------------------------------------------




--------------------------------------- Iteration      2(   3)  ---------------------------------------


    POTLOK:  cpu time      0.0239: real time      0.0242
    SETDIJ:  cpu time      0.0014: real time      0.0014
     EDDAV:  cpu time      1.4927: real time      1.5058
       DOS:  cpu time      0.0003: real time      0.0003
    CHARGE:  cpu time      0.0565: real time      0.0568
    MIXING:  cpu time      0.0007: real time      0.0007
    --------------------------------------------
      LOOP:  cpu time      1.5754: real time      1.5893

 eigenvalue-minimisations  :  1088
 total energy-change (2. order) : 0.2086198E-04  (-0.3453257E-04)
 number of electron     142.0000061 magnetization 
 augmentation part       84.9197620 magnetization 

 Broyden mixing:
  rms(total) = 0.51543E-02    rms(broyden)= 0.51539E-02
  rms(prec ) = 0.53072E-02
  weight for this iteration     100.00

 eigenvalues of (default mixing * dielectric matrix)
  average eigenvalue GAMMA=   1.1494
  1.9212  0.3775

 Free energy of the ion-electron system (eV)
  ---------------------------------------------------
  alpha Z        PSCENC =       154.47939101
  Ewald energy   TEWEN  =    132705.00313559
  -Hartree energ DENC   =   -148653.30236240
  -exchange      EXHF   =         0.00000000
  -V(xc)+E(xc)   XCENC  =       574.88195736
  PAW double counting   =     16513.27034746   -17808.21586885
  entropy T*S    EENTRO =        -0.02418546
  eigenvalues    EBANDS =      -813.72372919
  atomic energy  EATOM  =     17271.24178720
  Solvation  Ecorr_sol  =         0.00000000
  ---------------------------------------------------
  free energy    TOTEN  =       -56.38952728 eV

  energy without entropy =      -56.36534182  energy(sigma->0) =      -56.37743455


--------------------------------------------------------------------------------------------------------




--------------------------------------- Iteration      2(   4)  ---------------------------------------


    POTLOK:  cpu time      0.0188: real time      0.0191
    SETDIJ:  cpu time      0.0015: real time      0.0015
     EDDAV:  cpu time      1.5542: real time      1.5674
       DOS:  cpu time      0.0003: real time      0.0003
    CHARGE:  cpu time      0.0553: real time      0.0557
    MIXING:  cpu time      0.0007: real time      0.0007
    --------------------------------------------
      LOOP:  cpu time      1.6307: real time      1.6446

 eigenvalue-minimisations  :  1056
 total energy-change (2. order) : 0.8643008E-05  (-0.1721129E-04)
 number of electron     142.0000061 magnetization 
 augmentation part       84.9208771 magnetization 

 Broyden mixing:
  rms(total) = 0.26063E-02    rms(broyden)= 0.26061E-02
  rms(prec ) = 0.27578E-02
  weight for this iteration     100.00

 eigenvalues of (default mixing * dielectric matrix)
  average eigenvalue GAMMA=   1.1259
  2.4826  0.5196  0.3755

 Free energy of the ion-electron system (eV)
  ---------------------------------------------------
  alpha Z        PSCENC =       154.47939101
  Ewald energy   TEWEN  =    132705.00313559
  -Hartree energ DENC   =   -148653.46796320
  -exchange      EXHF   =         0.00000000
  -V(xc)+E(xc)   XCENC  =       574.88280424
  PAW double counting   =     16513.87120483   -17808.79607459
  entropy T*S    EENTRO =        -0.02411151
  eigenvalues    EBANDS =      -813.57969221
  atomic energy  EATOM  =     17271.24178720
  Solvation  Ecorr_sol  =         0.00000000
  ---------------------------------------------------
  free energy    TOTEN  =       -56.38951864 eV

  energy without entropy =      -56.36540713  energy(sigma->0) =      -56.37746288


--------------------------------------------------------------------------------------------------------




--------------------------------------- Iteration      2(   5)  ---------------------------------------


    POTLOK:  cpu time      0.0192: real time      0.0196
    SETDIJ:  cpu time      0.0014: real time      0.0014
     EDDAV:  cpu time      1.4580: real time      1.4705
       DOS:  cpu time      0.0003: real time      0.0003
    CHARGE:  cpu time      0.0555: real time      0.0559
    MIXING:  cpu time      0.0007: real time      0.0007
    --------------------------------------------
      LOOP:  cpu time      1.5351: real time      1.5485

 eigenvalue-minimisations  :  1024
 total energy-change (2. order) : 0.4649191E-05  (-0.1144749E-04)
 number of electron     142.0000061 magnetization 
 augmentation part       84.9193733 magnetization 

 Broyden mixing:
  rms(total) = 0.13906E-02    rms(broyden)= 0.13905E-02
  rms(prec ) = 0.16354E-02
  weight for this iteration     100.00

 eigenvalues of (default mixing * dielectric matrix)
  average eigenvalue GAMMA=   0.9691
  2.4544  0.6619  0.4222  0.3378

 Free energy of the ion-electron system (eV)
  ---------------------------------------------------
  alpha Z        PSCENC =       154.47939101
  Ewald energy   TEWEN  =    132705.00313559
  -Hartree energ DENC   =   -148653.63540750
  -exchange      EXHF   =         0.00000000
  -V(xc)+E(xc)   XCENC  =       574.88509697
  PAW double counting   =     16514.16358494   -17809.09939985
  entropy T*S    EENTRO =        -0.02418815
  eigenvalues    EBANDS =      -813.40351421
  atomic energy  EATOM  =     17271.24178720
  Solvation  Ecorr_sol  =         0.00000000
  ---------------------------------------------------
  free energy    TOTEN  =       -56.38951399 eV

  energy without entropy =      -56.36532584  energy(sigma->0) =      -56.37741991


--------------------------------------------------------------------------------------------------------




--------------------------------------- Iteration      2(   6)  ---------------------------------------


    POTLOK:  cpu time      0.0194: real time      0.0197
    SETDIJ:  cpu time      0.0015: real time      0.0016
     EDDAV:  cpu time      1.7235: real time      1.7383
       DOS:  cpu time      0.0003: real time      0.0003
    CHARGE:  cpu time      0.0571: real time      0.0575
    MIXING:  cpu time      0.0009: real time      0.0009
    --------------------------------------------
      LOOP:  cpu time      1.8027: real time      1.8183

 eigenvalue-minimisations  :  1344
 total energy-change (2. order) : 0.3614688E-05  (-0.5596594E-05)
 number of electron     142.0000061 magnetization 
 augmentation part       84.9189313 magnetization 

 Broyden mixing:
  rms(total) = 0.42937E-03    rms(broyden)= 0.42920E-03
  rms(prec ) = 0.49820E-03
  weight for this iteration     100.00

 eigenvalues of (default mixing * dielectric matrix)
  average eigenvalue GAMMA=   0.9354
  2.4404  0.8991  0.6395  0.3859  0.3119

 Free energy of the ion-electron system (eV)
  ---------------------------------------------------
  alpha Z        PSCENC =       154.47939101
  Ewald energy   TEWEN  =    132705.00313559
  -Hartree energ DENC   =   -148653.67692958
  -exchange      EXHF   =         0.00000000
  -V(xc)+E(xc)   XCENC  =       574.88517684
  PAW double counting   =     16514.16679773   -17809.10640751
  entropy T*S    EENTRO =        -0.02413976
  eigenvalues    EBANDS =      -813.35832190
  atomic energy  EATOM  =     17271.24178720
  Solvation  Ecorr_sol  =         0.00000000
  ---------------------------------------------------
  free energy    TOTEN  =       -56.38951037 eV

  energy without entropy =      -56.36537061  energy(sigma->0) =      -56.37744049


--------------------------------------------------------------------------------------------------------




--------------------------------------- Iteration      2(   7)  ---------------------------------------


    POTLOK:  cpu time      0.0196: real time      0.0200
    SETDIJ:  cpu time      0.0015: real time      0.0015
     EDDAV:  cpu time      1.1721: real time      1.1825
       DOS:  cpu time      0.0003: real time      0.0003
    --------------------------------------------
      LOOP:  cpu time      1.1935: real time      1.2043

 eigenvalue-minimisations  :   864
 total energy-change (2. order) : 0.2006491E-06  (-0.5851911E-06)
 number of electron     142.0000061 magnetization 
 augmentation part       84.9189313 magnetization 

 Free energy of the ion-electron system (eV)
  ---------------------------------------------------
  alpha Z        PSCENC =       154.47939101
  Ewald energy   TEWEN  =    132705.00313559
  -Hartree energ DENC   =   -148653.68122881
  -exchange      EXHF   =         0.00000000
  -V(xc)+E(xc)   XCENC  =       574.88471540
  PAW double counting   =     16514.12840886   -17809.06410367
  entropy T*S    EENTRO =        -0.02415210
  eigenvalues    EBANDS =      -813.35746366
  atomic energy  EATOM  =     17271.24178720
  Solvation  Ecorr_sol  =         0.00000000
  ---------------------------------------------------
  free energy    TOTEN  =       -56.38951017 eV

  energy without entropy =      -56.36535807  energy(sigma->0) =      -56.37743412


--------------------------------------------------------------------------------------------------------




 average (electrostatic) potential at core
  the test charge radii are     0.9430  0.7215  0.6991
  (the norm of the test charge is              1.0000)
       1 -73.3183       2 -73.3183       3 -73.3183       4 -73.3928       5 -73.5470
       6 -73.5869       7 -73.5470       8 -73.5470       9 -74.3941      10 -73.2785
      11 -73.2785      12 -73.2785      13 -80.8410      14 -59.9372
 
 
 
 E-fermi :  -2.3558     XC(G=0):  -3.1726     alpha+bet : -2.6859

 Fermi energy:        -2.3558413637

 k-point     1 :       0.0000    0.0000    0.0000
  band No.  band energies     occupation 
      1     -26.6245      2.00000
      2     -12.2907      2.00000
      3     -10.8838      2.00000
      4      -9.7720      2.00000
      5      -9.3513      2.00000
      6      -9.3513      2.00000
      7      -8.6001      2.00000
      8      -7.5000      2.00000
      9      -7.0427      2.00000
     10      -7.0427      2.00000
     11      -6.9500      2.00000
     12      -6.9033      2.00000
     13      -6.9033      2.00000
     14      -6.7427      2.00000
     15      -6.5629      2.00000
     16      -6.5629      2.00000
     17      -6.4493      2.00000
     18      -6.4465      2.00000
     19      -6.4465      2.00000
     20      -6.3468      2.00000
     21      -6.0569      2.00000
     22      -6.0569      2.00000
     23      -5.6923      2.00000
     24      -5.4576      2.00000
     25      -5.4576      2.00000
     26      -5.4147      2.00000
     27      -5.3066      2.00000
     28      -5.2258      2.00000
     29      -5.2258      2.00000
     30      -5.1817      2.00000
     31      -5.1817      2.00000
     32      -5.1560      2.00000
     33      -5.0898      2.00000
     34      -5.0898      2.00000
     35      -5.0023      2.00000
     36      -4.9799      2.00000
     37      -4.9799      2.00000
     38      -4.9043      2.00000
     39      -4.8355      2.00000
     40      -4.8355      2.00000
     41      -4.6998      2.00000
     42      -4.6998      2.00000
     43      -4.4174      2.00000
     44      -4.4174      2.00000
     45      -4.3992      2.00000
     46      -4.3992      2.00000
     47      -4.3989      2.00000
     48      -4.3308      2.00000
     49      -4.1611      2.00000
     50      -4.1611      2.00000
     51      -4.0643      2.00000
     52      -4.0159      2.00000
     53      -4.0159      2.00000
     54      -3.9458      2.00000
     55      -3.9458      2.00000
     56      -3.9385      2.00000
     57      -3.9070      2.00000
     58      -3.9070      2.00000
     59      -3.8765      2.00000
     60      -3.8765      2.00000
     61      -3.8374      2.00000
     62      -3.8208      2.00000
     63      -3.8208      2.00000
     64      -3.6705      2.00000
     65      -3.6705      2.00000
     66      -3.6486      2.00000
     67      -3.5966      2.00000
     68      -3.2221      2.00000
     69      -2.5357      1.99744
     70      -2.5357      1.99744
     71      -2.2832      0.12719
     72      -1.5452      0.00000
     73      -1.5452      0.00000
     74      -1.2950      0.00000
     75      -1.1416      0.00000
     76      -0.8312      0.00000
     77      -0.8312      0.00000
     78      -0.7580      0.00000
     79       0.8525      0.00000
     80       0.8525      0.00000
     81       1.6193      0.00000
     82       2.1874      0.00000
     83       2.2024      0.00000
     84       2.2024      0.00000
     85       2.3501      0.00000
     86       2.5579      0.00000
     87       2.9064      0.00000
     88       3.0312      0.00000
     89       3.1159      0.00000
     90       3.1159      0.00000
     91       3.6998      0.00000
     92       3.7863      0.00000
     93       3.9421      0.00000
     94       4.1805      0.00000
     95       4.1805      0.00000
     96       4.9256      0.00000

 k-point     2 :       0.2000    0.0000    0.0000
  band No.  band energies     occupation 
      1     -26.6242      2.00000
      2     -12.2564      2.00000
      3     -10.6135      2.00000
      4      -9.6768      2.00000
      5      -9.3795      2.00000
      6      -9.3578      2.00000
      7      -8.3937      2.00000
      8      -7.3091      2.00000
      9      -7.2727      2.00000
     10      -6.9795      2.00000
     11      -6.9158      2.00000
     12      -6.8604      2.00000
     13      -6.7824      2.00000
     14      -6.6625      2.00000
     15      -6.4858      2.00000
     16      -6.4623      2.00000
     17      -6.4043      2.00000
     18      -6.3350      2.00000
     19      -6.3169      2.00000
     20      -6.2285      2.00000
     21      -6.0245      2.00000
     22      -6.0078      2.00000
     23      -5.6899      2.00000
     24      -5.4937      2.00000
     25      -5.4327      2.00000
     26      -5.4237      2.00000
     27      -5.3803      2.00000
     28      -5.3012      2.00000
     29      -5.2730      2.00000
     30      -5.2146      2.00000
     31      -5.2066      2.00000
     32      -5.1274      2.00000
     33      -5.1272      2.00000
     34      -5.0919      2.00000
     35      -5.0556      2.00000
     36      -5.0303      2.00000
     37      -4.9991      2.00000
     38      -4.9503      2.00000
     39      -4.9280      2.00000
     40      -4.8829      2.00000
     41      -4.7885      2.00000
     42      -4.7167      2.00000
     43      -4.5578      2.00000
     44      -4.5286      2.00000
     45      -4.4944      2.00000
     46      -4.4529      2.00000
     47      -4.4258      2.00000
     48      -4.3651      2.00000
     49      -4.3512      2.00000
     50      -4.2708      2.00000
     51      -4.2346      2.00000
     52      -4.1753      2.00000
     53      -4.1594      2.00000
     54      -4.0834      2.00000
     55      -4.0575      2.00000
     56      -4.0416      2.00000
     57      -4.0315      2.00000
     58      -4.0006      2.00000
     59      -4.0004      2.00000
     60      -3.9455      2.00000
     61      -3.9295      2.00000
     62      -3.9141      2.00000
     63      -3.8821      2.00000
     64      -3.8441      2.00000
     65      -3.8266      2.00000
     66      -3.7845      2.00000
     67      -3.7455      2.00000
     68      -3.6605      2.00000
     69      -2.9978      2.00000
     70      -2.5487      1.99842
     71      -2.4376      1.90756
     72      -2.3647      1.16232
     73      -1.6394      0.00000
     74      -1.5126      0.00000
     75      -0.9003      0.00000
     76      -0.2290      0.00000
     77      -0.1875      0.00000
     78       0.1992      0.00000
     79       1.1190      0.00000
     80       1.1292      0.00000
     81       1.9327      0.00000
     82       2.4996      0.00000
     83       2.6628      0.00000
     84       2.6850      0.00000
     85       2.8623      0.00000
     86       2.9947      0.00000
     87       3.2162      0.00000
     88       3.2206      0.00000
     89       3.3059      0.00000
     90       3.4487      0.00000
     91       4.0192      0.00000
     92       4.1341      0.00000
     93       4.2761      0.00000
     94       4.6614      0.00000
     95       4.7326      0.00000
     96       5.2415      0.00000

 k-point     3 :       0.4000    0.0000    0.0000
  band No.  band energies     occupation 
      1     -26.6237      2.00000
      2     -12.2073      2.00000
      3      -9.9649      2.00000
      4      -9.4592      2.00000
      5      -9.3682      2.00000
      6      -9.3503      2.00000
      7      -8.3087      2.00000
      8      -7.7461      2.00000
      9      -7.0501      2.00000
     10      -6.8358      2.00000
     11      -6.7555      2.00000
     12      -6.7188      2.00000
     13      -6.5281      2.00000
     14      -6.4677      2.00000
     15      -6.3747      2.00000
     16      -6.2242      2.00000
     17      -6.1998      2.00000
     18      -6.1430      2.00000
     19      -6.1418      2.00000
     20      -5.9815      2.00000
     21      -5.8872      2.00000
     22      -5.8603      2.00000
     23      -5.7839      2.00000
     24      -5.6845      2.00000
     25      -5.6373      2.00000
     26      -5.6070      2.00000
     27      -5.5497      2.00000
     28      -5.5021      2.00000
     29      -5.3856      2.00000
     30      -5.3784      2.00000
     31      -5.3375      2.00000
     32      -5.2313      2.00000
     33      -5.1920      2.00000
     34      -5.1347      2.00000
     35      -5.0806      2.00000
     36      -5.0279      2.00000
     37      -4.9935      2.00000
     38      -4.9803      2.00000
     39      -4.9334      2.00000
     40      -4.9049      2.00000
     41      -4.8876      2.00000
     42      -4.8374      2.00000
     43      -4.8352      2.00000
     44      -4.8147      2.00000
     45      -4.7955      2.00000
     46      -4.7513      2.00000
     47      -4.6217      2.00000
     48      -4.5816      2.00000
     49      -4.5565      2.00000
     50      -4.5288      2.00000
     51      -4.4674      2.00000
     52      -4.4315      2.00000
     53      -4.3638      2.00000
     54      -4.3274      2.00000
     55      -4.3269      2.00000
     56      -4.3063      2.00000
     57      -4.1922      2.00000
     58      -4.1768      2.00000
     59      -4.1606      2.00000
     60      -4.1391      2.00000
     61      -4.0991      2.00000
     62      -4.0583      2.00000
     63      -3.9485      2.00000
     64      -3.9436      2.00000
     65      -3.9029      2.00000
     66      -3.8728      2.00000
     67      -3.8497      2.00000
     68      -3.7812      2.00000
     69      -3.4965      2.00000
     70      -2.4290      1.87508
     71      -2.3749      1.33969
     72      -2.2422      0.02930
     73      -1.5608      0.00000
     74      -1.3966      0.00000
     75      -1.0532      0.00000
     76      -0.0314      0.00000
     77       0.0542      0.00000
     78       0.6673      0.00000
     79       1.3534      0.00000
     80       1.9268      0.00000
     81       2.4836      0.00000
     82       2.8769      0.00000
     83       3.4312      0.00000
     84       3.6208      0.00000
     85       3.6731      0.00000
     86       3.7842      0.00000
     87       4.1126      0.00000
     88       4.1517      0.00000
     89       4.2540      0.00000
     90       4.6046      0.00000
     91       4.9189      0.00000
     92       4.9664      0.00000
     93       5.0856      0.00000
     94       5.1999      0.00000
     95       5.3158      0.00000
     96       5.4995      0.00000

 k-point     4 :       0.4000    0.2000    0.0000
  band No.  band energies     occupation 
      1     -26.6238      2.00000
      2     -12.2164      2.00000
      3     -10.1332      2.00000
      4      -9.4968      2.00000
      5      -9.4094      2.00000
      6      -9.3755      2.00000
      7      -7.9700      2.00000
      8      -7.5816      2.00000
      9      -7.5078      2.00000
     10      -6.8948      2.00000
     11      -6.8098      2.00000
     12      -6.7300      2.00000
     13      -6.6083      2.00000
     14      -6.4528      2.00000
     15      -6.3347      2.00000
     16      -6.2996      2.00000
     17      -6.2632      2.00000
     18      -6.2001      2.00000
     19      -6.1582      2.00000
     20      -6.0602      2.00000
     21      -5.9282      2.00000
     22      -5.9064      2.00000
     23      -5.7267      2.00000
     24      -5.6207      2.00000
     25      -5.5954      2.00000
     26      -5.5441      2.00000
     27      -5.5124      2.00000
     28      -5.4384      2.00000
     29      -5.3678      2.00000
     30      -5.3420      2.00000
     31      -5.2863      2.00000
     32      -5.2480      2.00000
     33      -5.1671      2.00000
     34      -5.1389      2.00000
     35      -5.1172      2.00000
     36      -5.0855      2.00000
     37      -5.0288      2.00000
     38      -4.9539      2.00000
     39      -4.9215      2.00000
     40      -4.8944      2.00000
     41      -4.8412      2.00000
     42      -4.7841      2.00000
     43      -4.7611      2.00000
     44      -4.7037      2.00000
     45      -4.6697      2.00000
     46      -4.6509      2.00000
     47      -4.6133      2.00000
     48      -4.5654      2.00000
     49      -4.5501      2.00000
     50      -4.5425      2.00000
     51      -4.4215      2.00000
     52      -4.3750      2.00000
     53      -4.3437      2.00000
     54      -4.3229      2.00000
     55      -4.2424      2.00000
     56      -4.2171      2.00000
     57      -4.1520      2.00000
     58      -4.1124      2.00000
     59      -4.0719      2.00000
     60      -4.0362      2.00000
     61      -3.9990      2.00000
     62      -3.9746      2.00000
     63      -3.9397      2.00000
     64      -3.9279      2.00000
     65      -3.9001      2.00000
     66      -3.8614      2.00000
     67      -3.7909      2.00000
     68      -3.6056      2.00000
     69      -3.5756      2.00000
     70      -3.0494      2.00000
     71      -3.0138      2.00000
     72      -2.1350      0.00056
     73      -1.0745      0.00000
     74      -1.0154      0.00000
     75      -0.5367      0.00000
     76      -0.1635      0.00000
     77       0.4093      0.00000
     78       0.5583      0.00000
     79       0.8214      0.00000
     80       1.3355      0.00000
     81       2.4945      0.00000
     82       2.7183      0.00000
     83       2.9746      0.00000
     84       3.1313      0.00000
     85       3.4718      0.00000
     86       3.6199      0.00000
     87       3.8357      0.00000
     88       3.9119      0.00000
     89       4.3464      0.00000
     90       4.5581      0.00000
     91       4.6593      0.00000
     92       4.7829      0.00000
     93       4.8116      0.00000
     94       5.2582      0.00000
     95       5.3245      0.00000
     96       5.8167      0.00000

 k-point     5 :      -0.4000    0.2000    0.0000
  band No.  band energies     occupation 
      1     -26.6235      2.00000
      2     -12.1942      2.00000
      3      -9.7905      2.00000
      4      -9.4466      2.00000
      5      -9.3918      2.00000
      6      -8.8122      2.00000
      7      -8.6498      2.00000
      8      -7.6462      2.00000
      9      -7.2303      2.00000
     10      -7.1664      2.00000
     11      -6.6590      2.00000
     12      -6.4501      2.00000
     13      -6.3930      2.00000
     14      -6.3417      2.00000
     15      -6.2706      2.00000
     16      -6.1252      2.00000
     17      -6.1090      2.00000
     18      -6.0328      2.00000
     19      -6.0183      2.00000
     20      -5.9435      2.00000
     21      -5.9183      2.00000
     22      -5.8838      2.00000
     23      -5.8059      2.00000
     24      -5.7611      2.00000
     25      -5.7487      2.00000
     26      -5.6983      2.00000
     27      -5.6486      2.00000
     28      -5.5567      2.00000
     29      -5.4405      2.00000
     30      -5.4117      2.00000
     31      -5.3854      2.00000
     32      -5.3318      2.00000
     33      -5.3030      2.00000
     34      -5.2604      2.00000
     35      -5.2179      2.00000
     36      -5.1750      2.00000
     37      -5.1163      2.00000
     38      -5.0602      2.00000
     39      -5.0252      2.00000
     40      -4.9934      2.00000
     41      -4.9320      2.00000
     42      -4.9242      2.00000
     43      -4.9038      2.00000
     44      -4.8328      2.00000
     45      -4.7797      2.00000
     46      -4.6754      2.00000
     47      -4.5936      2.00000
     48      -4.5660      2.00000
     49      -4.5379      2.00000
     50      -4.4799      2.00000
     51      -4.4429      2.00000
     52      -4.4356      2.00000
     53      -4.4056      2.00000
     54      -4.3444      2.00000
     55      -4.2875      2.00000
     56      -4.2679      2.00000
     57      -4.2050      2.00000
     58      -4.1766      2.00000
     59      -4.1173      2.00000
     60      -4.1057      2.00000
     61      -4.0929      2.00000
     62      -4.0213      2.00000
     63      -4.0032      2.00000
     64      -3.9765      2.00000
     65      -3.9430      2.00000
     66      -3.9221      2.00000
     67      -3.8826      2.00000
     68      -3.8621      2.00000
     69      -3.5798      2.00000
     70      -3.4287      2.00000
     71      -2.8693      2.00000
     72      -2.0726      0.00006
     73      -1.3423      0.00000
     74      -0.7165      0.00000
     75      -0.2195      0.00000
     76      -0.0722      0.00000
     77       0.3904      0.00000
     78       1.2820      0.00000
     79       1.3413      0.00000
     80       1.9475      0.00000
     81       2.6324      0.00000
     82       2.7227      0.00000
     83       3.2065      0.00000
     84       3.6483      0.00000
     85       3.7530      0.00000
     86       4.1953      0.00000
     87       4.3233      0.00000
     88       4.3694      0.00000
     89       4.5480      0.00000
     90       4.6905      0.00000
     91       4.7174      0.00000
     92       4.9674      0.00000
     93       5.0328      0.00000
     94       5.0726      0.00000
     95       5.1141      0.00000
     96       5.2023      0.00000


--------------------------------------------------------------------------------------------------------


 soft charge-density along one line, spin component           1
         0         1         2         3         4         5         6         7         8         9
 total charge-density along one line
 
 pseudopotential strength for first ion, spin component:           1
 -9.911  -0.001  -0.004  -0.005  -0.000   0.575   0.001   0.003
 -0.001  -9.872  -0.001   0.003  -0.003   0.001   0.544   0.001
 -0.004  -0.001  -9.865  -0.002  -0.002   0.003   0.001   0.537
 -0.005   0.003  -0.002  -9.869  -0.001   0.004  -0.002   0.002
 -0.000  -0.003  -0.002  -0.001  -9.911   0.000   0.002   0.002
  0.575   0.001   0.003   0.004   0.000   6.584  -0.001  -0.002
  0.001   0.544   0.001  -0.002   0.002  -0.001   6.607  -0.001
  0.003   0.001   0.537   0.002   0.002  -0.002  -0.001   6.612
  0.004  -0.002   0.002   0.541   0.001  -0.003   0.002  -0.001
  0.000   0.002   0.002   0.001   0.575  -0.000  -0.002  -0.001
 -0.001   0.000  -0.008   0.001  -0.000   0.000  -0.000   0.003
 -0.001   0.001  -0.014   0.001  -0.001   0.001  -0.000   0.005
  0.001  -0.010  -0.000   0.000  -0.000  -0.001   0.010   0.000
  0.000   0.001  -0.009   0.001   0.000  -0.000  -0.000   0.009
  0.001   0.000  -0.001  -0.009   0.001  -0.000  -0.000   0.000
  0.001  -0.011  -0.000   0.000  -0.000  -0.001   0.012   0.000
  0.000   0.001  -0.010   0.001   0.000  -0.000  -0.000   0.011
  0.001   0.000  -0.001  -0.011   0.001  -0.000  -0.000   0.000
 total augmentation occupancy for first ion, spin component:           1
  1.908  -0.000  -0.002  -0.005  -0.001  -0.016   0.000   0.000   0.005   0.000  -0.000  -0.000  -0.001   0.001   0.006   0.001
 -0.000   1.924  -0.002   0.001  -0.005  -0.000  -0.032   0.000  -0.000   0.005  -0.004   0.000   0.007   0.000   0.002  -0.009
 -0.002  -0.002   1.926  -0.003  -0.001   0.000   0.000  -0.028   0.001   0.000  -0.004   0.013  -0.001   0.053  -0.003  -0.000
 -0.005   0.001  -0.003   1.925  -0.000   0.005  -0.000   0.001  -0.032  -0.000  -0.008   0.000   0.002   0.000   0.009  -0.000
 -0.001  -0.005  -0.001  -0.000   1.909   0.000   0.005   0.000   0.000  -0.016  -0.000  -0.000   0.008   0.001  -0.001  -0.001
 -0.016  -0.000   0.000   0.005   0.000   0.014  -0.000  -0.000   0.000  -0.000  -0.000   0.000   0.000  -0.000   0.003  -0.000
  0.000  -0.032   0.000  -0.000   0.005  -0.000   0.010  -0.000  -0.000   0.000   0.001   0.000   0.017  -0.000  -0.000  -0.001
  0.000   0.000  -0.028   0.001   0.000  -0.000  -0.000   0.013  -0.000  -0.000  -0.043   0.002   0.000   0.022   0.001  -0.000
  0.005  -0.000   0.001  -0.032   0.000   0.000  -0.000  -0.000   0.010  -0.000   0.001   0.000  -0.000  -0.000   0.017   0.000
  0.000   0.005   0.000  -0.000  -0.016  -0.000   0.000  -0.000  -0.000   0.014  -0.000   0.000   0.002  -0.000   0.000  -0.000
 -0.000  -0.004  -0.004  -0.008  -0.000  -0.000   0.001  -0.043   0.001  -0.000   1.699  -0.135  -0.002   0.131  -0.003   0.000
 -0.000   0.000   0.013   0.000  -0.000   0.000   0.000   0.002   0.000   0.000  -0.135   0.016  -0.000  -0.022  -0.000  -0.000
 -0.001   0.007  -0.001   0.002   0.008   0.000   0.017   0.000  -0.000   0.002  -0.002  -0.000   0.209   0.001   0.000  -0.013
  0.001   0.000   0.053   0.000   0.001  -0.000  -0.000   0.022  -0.000  -0.000   0.131  -0.022   0.001   0.127   0.001  -0.000
  0.006   0.002  -0.003   0.009  -0.001   0.003  -0.000   0.001   0.017   0.000  -0.003  -0.000   0.000   0.001   0.209   0.000
  0.001  -0.009  -0.000  -0.000  -0.001  -0.000  -0.001  -0.000   0.000  -0.000   0.000  -0.000  -0.013  -0.000   0.000   0.001
  0.000   0.000  -0.014   0.001   0.000   0.000  -0.000  -0.001  -0.000   0.000  -0.019   0.002  -0.000  -0.009  -0.000   0.000
 -0.000  -0.000  -0.000  -0.009   0.001  -0.000   0.000  -0.000  -0.001  -0.000   0.000  -0.000   0.000  -0.000  -0.013  -0.000


------------------------ aborting loop because EDIFF is reached ----------------------------------------


    CHARGE:  cpu time      0.0613: real time      0.0619
    FORLOC:  cpu time      0.0021: real time      0.0021
    FORNL :  cpu time      0.1562: real time      0.1577
    STRESS:  cpu time      1.5858: real time      1.5973
    FORCOR:  cpu time      0.0183: real time      0.0184
    FORHAR:  cpu time      0.0047: real time      0.0047
    MIXING:  cpu time      0.0007: real time      0.0007
    OFIELD:  cpu time      0.0000: real time      0.0000

  FORCE on cell =-STRESS in cart. coord.  units (eV):
  Direction    XX          YY          ZZ          XY          YZ          ZX
  --------------------------------------------------------------------------------------
  Alpha Z   154.47939   154.47939   154.47939
  Ewald  141430.70261141430.70261************    -0.00000    -0.00000    -0.00000
  Hartree145605.12519145605.12519************     0.00000    -0.00000    -0.00000
  E(xc)    -814.54432  -814.54419  -814.93867    -0.00011     0.00000     0.00000
  Local  ************************291272.33687     0.00208    -0.00000    -0.00000
  n-local  -272.26807  -283.95046  -292.22912    -6.56085    -0.04421    -0.02887
  augment  1142.14159  1142.14370  1143.24758    -0.00183     0.00001     0.00001
  Kinetic  1268.01992  1270.79547  1248.73006     2.09446    -0.96836     1.22300
  Fock        0.00000     0.00000     0.00000     0.00000     0.00000     0.00000
  -------------------------------------------------------------------------------------
  Total      -1.54529    -1.54529    -1.08007    -0.00000    -0.00000    -0.00000
  in kB      -3.20069    -3.20069    -2.23711    -0.00000    -0.00000    -0.00000
  external pressure =       -2.88 kB  Pullay stress =        0.00 kB


 VOLUME and BASIS-vectors are now :
 -----------------------------------------------------------------------------
  energy-cutoff  :      600.00
  volume of cell :      773.53
      direct lattice vectors                 reciprocal lattice vectors
     5.112382028  0.000000000  0.000000000     0.195603536 -0.112931754  0.000000000
     2.556191014  4.427452710  0.000000000     0.000000000  0.225863508  0.000000000
     0.000000000  0.000000000 34.174242446     0.000000000  0.000000000  0.029261804

  length of vectors
     5.112382028  5.112382028 34.174242446     0.225863508  0.225863508  0.029261804


 FORCES acting on ions
    electron-ion (+dipol)            ewald-force                    non-local-force                 convergence-correction
 -----------------------------------------------------------------------------------------------
   -.362E+00 -.209E+00 0.341E+04   0.135E+00 0.778E-01 -.341E+04   0.207E+00 0.120E+00 -.203E+01   0.111E-02 0.639E-03 0.845E-02
   0.362E+00 -.209E+00 0.341E+04   -.135E+00 0.778E-01 -.341E+04   -.207E+00 0.120E+00 -.203E+01   -.111E-02 0.639E-03 0.845E-02
   0.264E-05 0.418E+00 0.341E+04   0.310E-11 -.156E+00 -.341E+04   0.228E-17 -.240E+00 -.203E+01   -.113E-08 -.128E-02 0.845E-02
   0.256E-05 0.148E-05 0.341E+04   0.315E-11 0.163E-11 -.341E+04   -.299E-17 -.264E-17 -.259E+01   -.374E-10 -.216E-10 0.763E-02
   -.243E-05 -.350E+01 0.322E+03   -.452E-11 0.301E+01 -.322E+03   -.129E-16 0.393E+00 -.428E+00   0.150E-08 0.811E-03 0.183E-01
   -.228E-05 -.132E-05 0.318E+03   -.478E-11 -.280E-11 -.318E+03   0.255E-18 0.107E-17 0.567E+00   -.227E-09 -.131E-09 0.179E-01
   0.303E+01 0.175E+01 0.322E+03   -.261E+01 -.150E+01 -.322E+03   -.340E+00 -.196E+00 -.428E+00   -.702E-03 -.405E-03 0.183E-01
   -.303E+01 0.175E+01 0.322E+03   0.261E+01 -.150E+01 -.322E+03   0.340E+00 -.196E+00 -.428E+00   0.702E-03 -.405E-03 0.183E-01
   0.591E-06 0.341E-06 -.265E+04   0.145E-11 0.111E-11 0.265E+04   -.524E-17 -.149E-17 0.167E+01   0.192E-09 0.111E-09 0.371E-02
   0.255E-06 0.204E-01 -.281E+04   0.150E-11 0.111E-11 0.280E+04   -.849E-17 0.242E-02 0.348E+01   0.104E-08 0.124E-02 0.126E-01
   0.177E-01 -.102E-01 -.281E+04   0.148E-11 0.109E-11 0.280E+04   0.210E-02 -.121E-02 0.348E+01   0.108E-02 -.621E-03 0.126E-01
   -.177E-01 -.102E-01 -.281E+04   0.152E-11 0.111E-11 0.280E+04   -.210E-02 -.121E-02 0.348E+01   -.108E-02 -.621E-03 0.126E-01
   -.911E-05 -.526E-05 -.245E+04   0.127E-13 -.157E-14 0.251E+04   -.219E-19 -.299E-19 -.601E+02   0.822E-09 0.475E-09 0.887E-03
   0.200E-05 0.116E-05 -.139E+04   0.218E-13 0.145E-14 0.137E+04   -.141E-18 -.212E-19 0.182E+02   0.360E-09 0.208E-09 0.478E-02
 -----------------------------------------------------------------------------------------------
   -.465E-05 -.269E-05 0.391E+02   -.113E-12 0.134E-13 0.000E+00   0.553E-16 0.277E-16 -.392E+02   0.134E-08 0.774E-09 0.153E+00
 
 
 POSITION                                       TOTAL-FORCE (eV/Angst)
 -----------------------------------------------------------------------------------
      1.27810      0.73791     15.00000        -0.018245     -0.010533      0.043063
      3.83429      0.73791     15.00000         0.018245     -0.010533      0.043063
      2.55619      2.95164     15.00000        -0.000000      0.021067      0.043063
      5.11238      2.95164     15.00000        -0.000000     -0.000000      0.125990
      5.11238      1.47582     17.08712         0.000000     -0.096967      0.025289
      2.55619      1.47582     17.08712        -0.000000     -0.000000      0.106992
      6.39048      3.68954     17.08712         0.083976      0.048484      0.025289
      3.83429      3.68954     17.08712        -0.083976      0.048484      0.025289
      0.00000      0.00000     19.17424        -0.000000     -0.000000      0.077618
      2.55619      0.00000     19.17424         0.000000      0.024064     -0.199761
      1.27810      2.21373     19.17424         0.020840     -0.012032     -0.199761
      3.83429      2.21373     19.17424        -0.020840     -0.012032     -0.199761
      0.00000      0.00000     22.16642        -0.000000     -0.000000      0.233609
      0.00000      0.00000     21.00871         0.000000     -0.000000     -0.149982
 -----------------------------------------------------------------------------------
    total drift:                               -0.000005     -0.000003      0.003362


--------------------------------------------------------------------------------------------------------



  FREE ENERGIE OF THE ION-ELECTRON SYSTEM (eV)
  ---------------------------------------------------
  free  energy   TOTEN  =       -56.38951017 eV

  energy  without entropy=      -56.36535807  energy(sigma->0) =      -56.37743412
 
 d Force = 0.1745526E-03[-0.111E-03, 0.460E-03]  d Energy = 0.1710053E-03 0.355E-05
 d Force = 0.1121458E+02[ 0.112E+02, 0.112E+02]  d Ewald  = 0.1121458E+02 0.516E-06


--------------------------------------------------------------------------------------------------------


    POTLOK:  cpu time      0.0218: real time      0.0242


--------------------------------------------------------------------------------------------------------


 Steepest descent step on ions:
 trial-energy change:   -0.000171  1 .order   -0.000175   -0.000460    0.000111
  (g-gl).g = 0.460E-03      g.g   = 0.460E-03  gl.gl    = 0.000E+00
 g(Force)  = 0.460E-03   g(Stress)= 0.000E+00 ortho     = 0.000E+00
 gamma     =   0.00000
 trial     =   1.00000
 opt step  =   0.80602  (harmonic =   0.80602) maximal distance =0.00335640
 next E    =   -56.389524   (d E  =  -0.00019)


--------------------------------------------------------------------------------------------------------


    WAVPRE:  cpu time      0.0061: real time      0.0269
    FEWALD:  cpu time      0.0003: real time      0.0003
    ORTHCH:  cpu time      0.1516: real time      0.1536
     LOOP+:  cpu time     13.1055: real time     13.2639


--------------------------------------- Iteration      3(   1)  ---------------------------------------


    POTLOK:  cpu time      0.0184: real time      0.0188
    SETDIJ:  cpu time      0.0015: real time      0.0015
     EDDAV:  cpu time      1.4074: real time      1.4199
       DOS:  cpu time      0.0010: real time      0.0010
    CHARGE:  cpu time      0.0559: real time      0.0563
    MIXING:  cpu time      0.0008: real time      0.0008
    --------------------------------------------
      LOOP:  cpu time      1.4851: real time      1.4983

 eigenvalue-minimisations  :   992
 total energy-change (2. order) :-0.9366144E-05  (-0.1934121E-03)
 number of electron     142.0000061 magnetization 
 augmentation part       84.9186047 magnetization 

 Broyden mixing:
  rms(total) = 0.15563E-02    rms(broyden)= 0.15541E-02
  rms(prec ) = 0.15869E-02
  weight for this iteration     100.00

 Free energy of the ion-electron system (eV)
  ---------------------------------------------------
  alpha Z        PSCENC =       154.47939101
  Ewald energy   TEWEN  =    132707.17805640
  -Hartree energ DENC   =   -148655.89603465
  -exchange      EXHF   =         0.00000000
  -V(xc)+E(xc)   XCENC  =       574.88508413
  PAW double counting   =     16514.12357353   -17809.05971575
  entropy T*S    EENTRO =        -0.02412627
  eigenvalues    EBANDS =      -813.31753535
  atomic energy  EATOM  =     17271.24178720
  Solvation  Ecorr_sol  =         0.00000000
  ---------------------------------------------------
  free energy    TOTEN  =       -56.38951974 eV

  energy without entropy =      -56.36539347  energy(sigma->0) =      -56.37745661


--------------------------------------------------------------------------------------------------------




--------------------------------------- Iteration      3(   2)  ---------------------------------------


    POTLOK:  cpu time      0.0193: real time      0.0197
    SETDIJ:  cpu time      0.0015: real time      0.0015
     EDDAV:  cpu time      1.9689: real time      1.9856
       DOS:  cpu time      0.0003: real time      0.0003
    CHARGE:  cpu time      0.0580: real time      0.0584
    MIXING:  cpu time      0.0008: real time      0.0008
    --------------------------------------------
      LOOP:  cpu time      2.0488: real time      2.0662

 eigenvalue-minimisations  :  1472
 total energy-change (2. order) :-0.2474706E-05  (-0.5025298E-05)
 number of electron     142.0000061 magnetization 
 augmentation part       84.9193857 magnetization 

 Broyden mixing:
  rms(total) = 0.13032E-02    rms(broyden)= 0.13030E-02
  rms(prec ) = 0.13517E-02
  weight for this iteration     100.00

 eigenvalues of (default mixing * dielectric matrix)
  average eigenvalue GAMMA=   0.6367
  0.6367

 Free energy of the ion-electron system (eV)
  ---------------------------------------------------
  alpha Z        PSCENC =       154.47939101
  Ewald energy   TEWEN  =    132707.17805640
  -Hartree energ DENC   =   -148655.82122255
  -exchange      EXHF   =         0.00000000
  -V(xc)+E(xc)   XCENC  =       574.88432218
  PAW double counting   =     16514.02845194   -17808.95917622
  entropy T*S    EENTRO =        -0.02414174
  eigenvalues    EBANDS =      -813.39699044
  atomic energy  EATOM  =     17271.24178720
  Solvation  Ecorr_sol  =         0.00000000
  ---------------------------------------------------
  free energy    TOTEN  =       -56.38952222 eV

  energy without entropy =      -56.36538048  energy(sigma->0) =      -56.37745135


--------------------------------------------------------------------------------------------------------




--------------------------------------- Iteration      3(   3)  ---------------------------------------


    POTLOK:  cpu time      0.0203: real time      0.0207
    SETDIJ:  cpu time      0.0016: real time      0.0016
     EDDAV:  cpu time      1.6482: real time      1.6618
       DOS:  cpu time      0.0003: real time      0.0003
    CHARGE:  cpu time      0.0568: real time      0.0572
    MIXING:  cpu time      0.0009: real time      0.0009
    --------------------------------------------
      LOOP:  cpu time      1.7280: real time      1.7425

 eigenvalue-minimisations  :  1088
 total energy-change (2. order) : 0.1091372E-05  (-0.1538186E-05)
 number of electron     142.0000061 magnetization 
 augmentation part       84.9188687 magnetization 

 Broyden mixing:
  rms(total) = 0.97015E-03    rms(broyden)= 0.97009E-03
  rms(prec ) = 0.10058E-02
  weight for this iteration     100.00

 eigenvalues of (default mixing * dielectric matrix)
  average eigenvalue GAMMA=   1.0498
  1.7208  0.3789

 Free energy of the ion-electron system (eV)
  ---------------------------------------------------
  alpha Z        PSCENC =       154.47939101
  Ewald energy   TEWEN  =    132707.17805640
  -Hartree energ DENC   =   -148655.84532750
  -exchange      EXHF   =         0.00000000
  -V(xc)+E(xc)   XCENC  =       574.88458909
  PAW double counting   =     16513.98266700   -17808.92003863
  entropy T*S    EENTRO =        -0.02412472
  eigenvalues    EBANDS =      -813.36652098
  atomic energy  EATOM  =     17271.24178720
  Solvation  Ecorr_sol  =         0.00000000
  ---------------------------------------------------
  free energy    TOTEN  =       -56.38952112 eV

  energy without entropy =      -56.36539641  energy(sigma->0) =      -56.37745876


--------------------------------------------------------------------------------------------------------




--------------------------------------- Iteration      3(   4)  ---------------------------------------


    POTLOK:  cpu time      0.0200: real time      0.0203
    SETDIJ:  cpu time      0.0015: real time      0.0015
     EDDAV:  cpu time      1.6206: real time      1.6347
       DOS:  cpu time      0.0003: real time      0.0003
    CHARGE:  cpu time      0.0583: real time      0.0587
    MIXING:  cpu time      0.0011: real time      0.0011
    --------------------------------------------
      LOOP:  cpu time      1.7017: real time      1.7166

 eigenvalue-minimisations  :  1120
 total energy-change (2. order) :-0.1300137E-05  (-0.9431333E-06)
 number of electron     142.0000061 magnetization 
 augmentation part       84.9186526 magnetization 

 Broyden mixing:
  rms(total) = 0.60562E-03    rms(broyden)= 0.60560E-03
  rms(prec ) = 0.64944E-03
  weight for this iteration     100.00

 eigenvalues of (default mixing * dielectric matrix)
  average eigenvalue GAMMA=   1.0937
  2.4199  0.4939  0.3673

 Free energy of the ion-electron system (eV)
  ---------------------------------------------------
  alpha Z        PSCENC =       154.47939101
  Ewald energy   TEWEN  =    132707.17805640
  -Hartree energ DENC   =   -148655.84198076
  -exchange      EXHF   =         0.00000000
  -V(xc)+E(xc)   XCENC  =       574.88453837
  PAW double counting   =     16513.85856909   -17808.79955859
  entropy T*S    EENTRO =        -0.02414479
  eigenvalues    EBANDS =      -813.36618036
  atomic energy  EATOM  =     17271.24178720
  Solvation  Ecorr_sol  =         0.00000000
  ---------------------------------------------------
  free energy    TOTEN  =       -56.38952242 eV

  energy without entropy =      -56.36537763  energy(sigma->0) =      -56.37745003


--------------------------------------------------------------------------------------------------------




--------------------------------------- Iteration      3(   5)  ---------------------------------------


    POTLOK:  cpu time      0.0196: real time      0.0199
    SETDIJ:  cpu time      0.0015: real time      0.0015
     EDDAV:  cpu time      1.2563: real time      1.2667
       DOS:  cpu time      0.0003: real time      0.0003
    --------------------------------------------
      LOOP:  cpu time      1.2777: real time      1.2884

 eigenvalue-minimisations  :   768
 total energy-change (2. order) :-0.7051312E-06  (-0.6832382E-06)
 number of electron     142.0000061 magnetization 
 augmentation part       84.9186526 magnetization 

 Free energy of the ion-electron system (eV)
  ---------------------------------------------------
  alpha Z        PSCENC =       154.47939101
  Ewald energy   TEWEN  =    132707.17805640
  -Hartree energ DENC   =   -148655.82711925
  -exchange      EXHF   =         0.00000000
  -V(xc)+E(xc)   XCENC  =       574.88417905
  PAW double counting   =     16513.78491193   -17808.72446680
  entropy T*S    EENTRO =        -0.02412600
  eigenvalues    EBANDS =      -813.38213667
  atomic energy  EATOM  =     17271.24178720
  Solvation  Ecorr_sol  =         0.00000000
  ---------------------------------------------------
  free energy    TOTEN  =       -56.38952313 eV

  energy without entropy =      -56.36539713  energy(sigma->0) =      -56.37746013


--------------------------------------------------------------------------------------------------------




 average (electrostatic) potential at core
  the test charge radii are     0.9430  0.7215  0.6991
  (the norm of the test charge is              1.0000)
       1 -73.3181       2 -73.3181       3 -73.3181       4 -73.3927       5 -73.5472
       6 -73.5872       7 -73.5472       8 -73.5472       9 -74.3970      10 -73.2792
      11 -73.2792      12 -73.2792      13 -80.8374      14 -59.9369
 
 
 
 E-fermi :  -2.3563     XC(G=0):  -3.1734     alpha+bet : -2.6859

 Fermi energy:        -2.3563260551

 k-point     1 :       0.0000    0.0000    0.0000
  band No.  band energies     occupation 
      1     -26.6172      2.00000
      2     -12.2921      2.00000
      3     -10.8838      2.00000
      4      -9.7719      2.00000
      5      -9.3469      2.00000
      6      -9.3469      2.00000
      7      -8.6011      2.00000
      8      -7.5008      2.00000
      9      -7.0433      2.00000
     10      -7.0433      2.00000
     11      -6.9503      2.00000
     12      -6.9043      2.00000
     13      -6.9042      2.00000
     14      -6.7430      2.00000
     15      -6.5638      2.00000
     16      -6.5638      2.00000
     17      -6.4499      2.00000
     18      -6.4468      2.00000
     19      -6.4468      2.00000
     20      -6.3470      2.00000
     21      -6.0581      2.00000
     22      -6.0581      2.00000
     23      -5.6926      2.00000
     24      -5.4581      2.00000
     25      -5.4581      2.00000
     26      -5.4151      2.00000
     27      -5.3070      2.00000
     28      -5.2261      2.00000
     29      -5.2261      2.00000
     30      -5.1827      2.00000
     31      -5.1827      2.00000
     32      -5.1561      2.00000
     33      -5.0904      2.00000
     34      -5.0904      2.00000
     35      -5.0025      2.00000
     36      -4.9800      2.00000
     37      -4.9800      2.00000
     38      -4.9046      2.00000
     39      -4.8359      2.00000
     40      -4.8359      2.00000
     41      -4.7004      2.00000
     42      -4.7004      2.00000
     43      -4.4177      2.00000
     44      -4.4177      2.00000
     45      -4.3994      2.00000
     46      -4.3994      2.00000
     47      -4.3992      2.00000
     48      -4.3310      2.00000
     49      -4.1614      2.00000
     50      -4.1614      2.00000
     51      -4.0647      2.00000
     52      -4.0160      2.00000
     53      -4.0160      2.00000
     54      -3.9463      2.00000
     55      -3.9463      2.00000
     56      -3.9387      2.00000
     57      -3.9072      2.00000
     58      -3.9072      2.00000
     59      -3.8768      2.00000
     60      -3.8768      2.00000
     61      -3.8376      2.00000
     62      -3.8214      2.00000
     63      -3.8214      2.00000
     64      -3.6703      2.00000
     65      -3.6703      2.00000
     66      -3.6484      2.00000
     67      -3.5973      2.00000
     68      -3.2220      2.00000
     69      -2.5366      1.99748
     70      -2.5366      1.99748
     71      -2.2836      0.12670
     72      -1.5460      0.00000
     73      -1.5460      0.00000
     74      -1.2949      0.00000
     75      -1.1420      0.00000
     76      -0.8314      0.00000
     77      -0.8314      0.00000
     78      -0.7585      0.00000
     79       0.8521      0.00000
     80       0.8521      0.00000
     81       1.6220      0.00000
     82       2.1858      0.00000
     83       2.2021      0.00000
     84       2.2021      0.00000
     85       2.3498      0.00000
     86       2.5644      0.00000
     87       2.8971      0.00000
     88       3.0317      0.00000
     89       3.1157      0.00000
     90       3.1157      0.00000
     91       3.7008      0.00000
     92       3.7848      0.00000
     93       3.9414      0.00000
     94       4.1805      0.00000
     95       4.1805      0.00000
     96       4.9230      0.00000

 k-point     2 :       0.2000    0.0000    0.0000
  band No.  band energies     occupation 
      1     -26.6169      2.00000
      2     -12.2577      2.00000
      3     -10.6135      2.00000
      4      -9.6768      2.00000
      5      -9.3753      2.00000
      6      -9.3534      2.00000
      7      -8.3945      2.00000
      8      -7.3095      2.00000
      9      -7.2734      2.00000
     10      -6.9802      2.00000
     11      -6.9163      2.00000
     12      -6.8610      2.00000
     13      -6.7832      2.00000
     14      -6.6628      2.00000
     15      -6.4866      2.00000
     16      -6.4633      2.00000
     17      -6.4048      2.00000
     18      -6.3355      2.00000
     19      -6.3175      2.00000
     20      -6.2289      2.00000
     21      -6.0255      2.00000
     22      -6.0089      2.00000
     23      -5.6902      2.00000
     24      -5.4944      2.00000
     25      -5.4332      2.00000
     26      -5.4243      2.00000
     27      -5.3806      2.00000
     28      -5.3016      2.00000
     29      -5.2734      2.00000
     30      -5.2150      2.00000
     31      -5.2071      2.00000
     32      -5.1277      2.00000
     33      -5.1276      2.00000
     34      -5.0925      2.00000
     35      -5.0560      2.00000
     36      -5.0308      2.00000
     37      -4.9993      2.00000
     38      -4.9506      2.00000
     39      -4.9283      2.00000
     40      -4.8829      2.00000
     41      -4.7890      2.00000
     42      -4.7171      2.00000
     43      -4.5582      2.00000
     44      -4.5291      2.00000
     45      -4.4947      2.00000
     46      -4.4532      2.00000
     47      -4.4260      2.00000
     48      -4.3653      2.00000
     49      -4.3514      2.00000
     50      -4.2711      2.00000
     51      -4.2349      2.00000
     52      -4.1757      2.00000
     53      -4.1597      2.00000
     54      -4.0836      2.00000
     55      -4.0578      2.00000
     56      -4.0419      2.00000
     57      -4.0318      2.00000
     58      -4.0008      2.00000
     59      -4.0006      2.00000
     60      -3.9458      2.00000
     61      -3.9300      2.00000
     62      -3.9145      2.00000
     63      -3.8823      2.00000
     64      -3.8445      2.00000
     65      -3.8267      2.00000
     66      -3.7844      2.00000
     67      -3.7458      2.00000
     68      -3.6608      2.00000
     69      -2.9981      2.00000
     70      -2.5487      1.99839
     71      -2.4383      1.90822
     72      -2.3651      1.16108
     73      -1.6401      0.00000
     74      -1.5131      0.00000
     75      -0.9003      0.00000
     76      -0.2297      0.00000
     77      -0.1880      0.00000
     78       0.1988      0.00000
     79       1.1191      0.00000
     80       1.1290      0.00000
     81       1.9352      0.00000
     82       2.4981      0.00000
     83       2.6624      0.00000
     84       2.6848      0.00000
     85       2.8685      0.00000
     86       2.9945      0.00000
     87       3.2071      0.00000
     88       3.2204      0.00000
     89       3.3074      0.00000
     90       3.4477      0.00000
     91       4.0202      0.00000
     92       4.1316      0.00000
     93       4.2763      0.00000
     94       4.6613      0.00000
     95       4.7325      0.00000
     96       5.2394      0.00000

 k-point     3 :       0.4000    0.0000    0.0000
  band No.  band energies     occupation 
      1     -26.6164      2.00000
      2     -12.2085      2.00000
      3      -9.9649      2.00000
      4      -9.4563      2.00000
      5      -9.3639      2.00000
      6      -9.3495      2.00000
      7      -8.3091      2.00000
      8      -7.7468      2.00000
      9      -7.0507      2.00000
     10      -6.8367      2.00000
     11      -6.7560      2.00000
     12      -6.7193      2.00000
     13      -6.5287      2.00000
     14      -6.4682      2.00000
     15      -6.3752      2.00000
     16      -6.2252      2.00000
     17      -6.2010      2.00000
     18      -6.1439      2.00000
     19      -6.1426      2.00000
     20      -5.9822      2.00000
     21      -5.8879      2.00000
     22      -5.8609      2.00000
     23      -5.7846      2.00000
     24      -5.6849      2.00000
     25      -5.6379      2.00000
     26      -5.6074      2.00000
     27      -5.5500      2.00000
     28      -5.5026      2.00000
     29      -5.3862      2.00000
     30      -5.3789      2.00000
     31      -5.3378      2.00000
     32      -5.2316      2.00000
     33      -5.1925      2.00000
     34      -5.1350      2.00000
     35      -5.0808      2.00000
     36      -5.0282      2.00000
     37      -4.9937      2.00000
     38      -4.9806      2.00000
     39      -4.9337      2.00000
     40      -4.9050      2.00000
     41      -4.8879      2.00000
     42      -4.8376      2.00000
     43      -4.8356      2.00000
     44      -4.8148      2.00000
     45      -4.7957      2.00000
     46      -4.7515      2.00000
     47      -4.6223      2.00000
     48      -4.5819      2.00000
     49      -4.5569      2.00000
     50      -4.5291      2.00000
     51      -4.4676      2.00000
     52      -4.4316      2.00000
     53      -4.3641      2.00000
     54      -4.3277      2.00000
     55      -4.3270      2.00000
     56      -4.3066      2.00000
     57      -4.1927      2.00000
     58      -4.1770      2.00000
     59      -4.1608      2.00000
     60      -4.1394      2.00000
     61      -4.0993      2.00000
     62      -4.0586      2.00000
     63      -3.9488      2.00000
     64      -3.9438      2.00000
     65      -3.9032      2.00000
     66      -3.8731      2.00000
     67      -3.8499      2.00000
     68      -3.7814      2.00000
     69      -3.4966      2.00000
     70      -2.4294      1.87503
     71      -2.3755      1.34079
     72      -2.2424      0.02894
     73      -1.5615      0.00000
     74      -1.3969      0.00000
     75      -1.0533      0.00000
     76      -0.0315      0.00000
     77       0.0535      0.00000
     78       0.6666      0.00000
     79       1.3532      0.00000
     80       1.9268      0.00000
     81       2.4845      0.00000
     82       2.8787      0.00000
     83       3.4298      0.00000
     84       3.6205      0.00000
     85       3.6727      0.00000
     86       3.7903      0.00000
     87       4.1122      0.00000
     88       4.1464      0.00000
     89       4.2539      0.00000
     90       4.6044      0.00000
     91       4.9190      0.00000
     92       4.9664      0.00000
     93       5.0820      0.00000
     94       5.1996      0.00000
     95       5.3211      0.00000
     96       5.4994      0.00000

 k-point     4 :       0.4000    0.2000    0.0000
  band No.  band energies     occupation 
      1     -26.6165      2.00000
      2     -12.2177      2.00000
      3     -10.1332      2.00000
      4      -9.4971      2.00000
      5      -9.4052      2.00000
      6      -9.3711      2.00000
      7      -7.9707      2.00000
      8      -7.5821      2.00000
      9      -7.5082      2.00000
     10      -6.8955      2.00000
     11      -6.8104      2.00000
     12      -6.7305      2.00000
     13      -6.6092      2.00000
     14      -6.4534      2.00000
     15      -6.3357      2.00000
     16      -6.3001      2.00000
     17      -6.2639      2.00000
     18      -6.2011      2.00000
     19      -6.1591      2.00000
     20      -6.0608      2.00000
     21      -5.9290      2.00000
     22      -5.9070      2.00000
     23      -5.7270      2.00000
     24      -5.6212      2.00000
     25      -5.5959      2.00000
     26      -5.5447      2.00000
     27      -5.5130      2.00000
     28      -5.4389      2.00000
     29      -5.3683      2.00000
     30      -5.3425      2.00000
     31      -5.2866      2.00000
     32      -5.2485      2.00000
     33      -5.1674      2.00000
     34      -5.1392      2.00000
     35      -5.1175      2.00000
     36      -5.0857      2.00000
     37      -5.0290      2.00000
     38      -4.9542      2.00000
     39      -4.9218      2.00000
     40      -4.8947      2.00000
     41      -4.8415      2.00000
     42      -4.7843      2.00000
     43      -4.7615      2.00000
     44      -4.7038      2.00000
     45      -4.6700      2.00000
     46      -4.6513      2.00000
     47      -4.6134      2.00000
     48      -4.5656      2.00000
     49      -4.5506      2.00000
     50      -4.5428      2.00000
     51      -4.4217      2.00000
     52      -4.3752      2.00000
     53      -4.3440      2.00000
     54      -4.3232      2.00000
     55      -4.2426      2.00000
     56      -4.2173      2.00000
     57      -4.1522      2.00000
     58      -4.1128      2.00000
     59      -4.0723      2.00000
     60      -4.0363      2.00000
     61      -3.9994      2.00000
     62      -3.9747      2.00000
     63      -3.9400      2.00000
     64      -3.9282      2.00000
     65      -3.9003      2.00000
     66      -3.8616      2.00000
     67      -3.7913      2.00000
     68      -3.6059      2.00000
     69      -3.5758      2.00000
     70      -3.0498      2.00000
     71      -3.0142      2.00000
     72      -2.1348      0.00055
     73      -1.0757      0.00000
     74      -1.0159      0.00000
     75      -0.5371      0.00000
     76      -0.1641      0.00000
     77       0.4088      0.00000
     78       0.5581      0.00000
     79       0.8216      0.00000
     80       1.3354      0.00000
     81       2.4965      0.00000
     82       2.7185      0.00000
     83       2.9746      0.00000
     84       3.1296      0.00000
     85       3.4775      0.00000
     86       3.6200      0.00000
     87       3.8267      0.00000
     88       3.9137      0.00000
     89       4.3457      0.00000
     90       4.5581      0.00000
     91       4.6596      0.00000
     92       4.7823      0.00000
     93       4.8100      0.00000
     94       5.2590      0.00000
     95       5.3258      0.00000
     96       5.8157      0.00000

 k-point     5 :      -0.4000    0.2000    0.0000
  band No.  band energies     occupation 
      1     -26.6162      2.00000
      2     -12.1954      2.00000
      3      -9.7907      2.00000
      4      -9.4426      2.00000
      5      -9.3875      2.00000
      6      -8.8124      2.00000
      7      -8.6502      2.00000
      8      -7.6466      2.00000
      9      -7.2306      2.00000
     10      -7.1672      2.00000
     11      -6.6596      2.00000
     12      -6.4510      2.00000
     13      -6.3942      2.00000
     14      -6.3428      2.00000
     15      -6.2710      2.00000
     16      -6.1268      2.00000
     17      -6.1096      2.00000
     18      -6.0336      2.00000
     19      -6.0187      2.00000
     20      -5.9439      2.00000
     21      -5.9192      2.00000
     22      -5.8847      2.00000
     23      -5.8064      2.00000
     24      -5.7614      2.00000
     25      -5.7490      2.00000
     26      -5.6991      2.00000
     27      -5.6489      2.00000
     28      -5.5571      2.00000
     29      -5.4410      2.00000
     30      -5.4120      2.00000
     31      -5.3857      2.00000
     32      -5.3318      2.00000
     33      -5.3031      2.00000
     34      -5.2606      2.00000
     35      -5.2182      2.00000
     36      -5.1755      2.00000
     37      -5.1167      2.00000
     38      -5.0604      2.00000
     39      -5.0254      2.00000
     40      -4.9933      2.00000
     41      -4.9323      2.00000
     42      -4.9244      2.00000
     43      -4.9040      2.00000
     44      -4.8331      2.00000
     45      -4.7799      2.00000
     46      -4.6756      2.00000
     47      -4.5939      2.00000
     48      -4.5664      2.00000
     49      -4.5384      2.00000
     50      -4.4802      2.00000
     51      -4.4434      2.00000
     52      -4.4358      2.00000
     53      -4.4059      2.00000
     54      -4.3446      2.00000
     55      -4.2879      2.00000
     56      -4.2681      2.00000
     57      -4.2053      2.00000
     58      -4.1768      2.00000
     59      -4.1174      2.00000
     60      -4.1058      2.00000
     61      -4.0932      2.00000
     62      -4.0216      2.00000
     63      -4.0034      2.00000
     64      -3.9769      2.00000
     65      -3.9432      2.00000
     66      -3.9225      2.00000
     67      -3.8829      2.00000
     68      -3.8623      2.00000
     69      -3.5802      2.00000
     70      -3.4287      2.00000
     71      -2.8695      2.00000
     72      -2.0730      0.00006
     73      -1.3425      0.00000
     74      -0.7171      0.00000
     75      -0.2196      0.00000
     76      -0.0730      0.00000
     77       0.3898      0.00000
     78       1.2819      0.00000
     79       1.3408      0.00000
     80       1.9477      0.00000
     81       2.6321      0.00000
     82       2.7225      0.00000
     83       3.2072      0.00000
     84       3.6510      0.00000
     85       3.7540      0.00000
     86       4.1955      0.00000
     87       4.3228      0.00000
     88       4.3678      0.00000
     89       4.5467      0.00000
     90       4.6948      0.00000
     91       4.7249      0.00000
     92       4.9694      0.00000
     93       5.0264      0.00000
     94       5.0654      0.00000
     95       5.1156      0.00000
     96       5.1994      0.00000


--------------------------------------------------------------------------------------------------------


 soft charge-density along one line, spin component           1
         0         1         2         3         4         5         6         7         8         9
 total charge-density along one line
 
 pseudopotential strength for first ion, spin component:           1
 -9.911  -0.001  -0.004  -0.005  -0.000   0.575   0.001   0.003
 -0.001  -9.872  -0.001   0.003  -0.003   0.001   0.544   0.001
 -0.004  -0.001  -9.865  -0.002  -0.002   0.003   0.001   0.537
 -0.005   0.003  -0.002  -9.869  -0.001   0.004  -0.002   0.002
 -0.000  -0.003  -0.002  -0.001  -9.910   0.000   0.002   0.002
  0.575   0.001   0.003   0.004   0.000   6.585  -0.001  -0.002
  0.001   0.544   0.001  -0.002   0.002  -0.001   6.607  -0.001
  0.003   0.001   0.537   0.002   0.002  -0.002  -0.001   6.612
  0.004  -0.002   0.002   0.541   0.001  -0.003   0.002  -0.001
  0.000   0.002   0.002   0.001   0.574  -0.000  -0.002  -0.001
 -0.001   0.000  -0.008   0.001  -0.000   0.000  -0.000   0.003
 -0.001   0.001  -0.014   0.001  -0.001   0.001  -0.000   0.005
  0.001  -0.010  -0.000   0.000  -0.000  -0.001   0.010   0.000
  0.000   0.001  -0.009   0.001   0.000  -0.000  -0.000   0.009
  0.001   0.000  -0.001  -0.009   0.001  -0.000  -0.000   0.000
  0.001  -0.011  -0.000   0.000  -0.000  -0.001   0.012   0.000
  0.000   0.001  -0.010   0.001   0.000  -0.000  -0.000   0.011
  0.001   0.000  -0.001  -0.011   0.001  -0.000  -0.000   0.000
 total augmentation occupancy for first ion, spin component:           1
  1.908  -0.000  -0.002  -0.005  -0.001  -0.016   0.000   0.000   0.005   0.000  -0.000  -0.000  -0.001   0.001   0.006   0.001
 -0.000   1.924  -0.002   0.001  -0.005  -0.000  -0.032   0.000  -0.000   0.005  -0.004   0.000   0.007   0.000   0.002  -0.009
 -0.002  -0.002   1.926  -0.003  -0.001   0.000   0.000  -0.028   0.001   0.000  -0.004   0.013  -0.001   0.053  -0.003  -0.000
 -0.005   0.001  -0.003   1.925  -0.000   0.005  -0.000   0.001  -0.032  -0.000  -0.008   0.000   0.002   0.001   0.009  -0.000
 -0.001  -0.005  -0.001  -0.000   1.909   0.000   0.005   0.000   0.000  -0.016  -0.000  -0.000   0.008   0.001  -0.001  -0.001
 -0.016  -0.000   0.000   0.005   0.000   0.014  -0.000  -0.000   0.000  -0.000  -0.000   0.000   0.000  -0.000   0.003  -0.000
  0.000  -0.032   0.000  -0.000   0.005  -0.000   0.010  -0.000  -0.000   0.000   0.001   0.000   0.017  -0.000  -0.000  -0.001
  0.000   0.000  -0.028   0.001   0.000  -0.000  -0.000   0.013  -0.000  -0.000  -0.043   0.002   0.000   0.022   0.001  -0.000
  0.005  -0.000   0.001  -0.032   0.000   0.000  -0.000  -0.000   0.010  -0.000   0.001   0.000  -0.000  -0.000   0.017   0.000
  0.000   0.005   0.000  -0.000  -0.016  -0.000   0.000  -0.000  -0.000   0.014  -0.000   0.000   0.002  -0.000   0.000  -0.000
 -0.000  -0.004  -0.004  -0.008  -0.000  -0.000   0.001  -0.043   0.001  -0.000   1.699  -0.135  -0.002   0.131  -0.003   0.000
 -0.000   0.000   0.013   0.000  -0.000   0.000   0.000   0.002   0.000   0.000  -0.135   0.016  -0.000  -0.022  -0.000  -0.000
 -0.001   0.007  -0.001   0.002   0.008   0.000   0.017   0.000  -0.000   0.002  -0.002  -0.000   0.209   0.001   0.000  -0.013
  0.001   0.000   0.053   0.001   0.001  -0.000  -0.000   0.022  -0.000  -0.000   0.131  -0.022   0.001   0.127   0.001  -0.000
  0.006   0.002  -0.003   0.009  -0.001   0.003  -0.000   0.001   0.017   0.000  -0.003  -0.000   0.000   0.001   0.209   0.000
  0.001  -0.009  -0.000  -0.000  -0.001  -0.000  -0.001  -0.000   0.000  -0.000   0.000  -0.000  -0.013  -0.000   0.000   0.001
  0.000   0.000  -0.014   0.001   0.000   0.000  -0.000  -0.001  -0.000   0.000  -0.019   0.002  -0.000  -0.009  -0.000   0.000
 -0.000  -0.000  -0.000  -0.009   0.001  -0.000   0.000  -0.000  -0.001  -0.000   0.000  -0.000   0.000  -0.000  -0.013  -0.000


------------------------ aborting loop because EDIFF is reached ----------------------------------------


    CHARGE:  cpu time      0.0578: real time      0.0583
    FORLOC:  cpu time      0.0021: real time      0.0021
    FORNL :  cpu time      0.1727: real time      0.1742
    STRESS:  cpu time      1.5615: real time      1.5734
    FORCOR:  cpu time      0.0177: real time      0.0178
    FORHAR:  cpu time      0.0047: real time      0.0048
    MIXING:  cpu time      0.0007: real time      0.0007
    OFIELD:  cpu time      0.0000: real time      0.0000

  FORCE on cell =-STRESS in cart. coord.  units (eV):
  Direction    XX          YY          ZZ          XY          YZ          ZX
  --------------------------------------------------------------------------------------
  Alpha Z   154.47939   154.47939   154.47939
  Ewald  141432.91690141432.91690************    -0.00000    -0.00000    -0.00000
  Hartree145606.94178145606.94178************     0.00000    -0.00000    -0.00000
  E(xc)    -814.54355  -814.54341  -814.93804    -0.00011     0.00000     0.00000
  Local  ************************291276.38440     0.00208    -0.00000    -0.00000
  n-local  -272.28348  -283.96513  -292.22179    -6.56014    -0.04403    -0.02901
  augment  1142.14130  1142.14342  1143.23940    -0.00183     0.00001     0.00001
  Kinetic  1268.01997  1270.79793  1248.71297     2.09670    -0.96823     1.22285
  Fock        0.00000     0.00000     0.00000     0.00000     0.00000     0.00000
  -------------------------------------------------------------------------------------
  Total      -1.56808    -1.56808    -1.13848     0.00000     0.00000     0.00000
  in kB      -3.24790    -3.24790    -2.35809     0.00000     0.00000     0.00000
  external pressure =       -2.95 kB  Pullay stress =        0.00 kB


 VOLUME and BASIS-vectors are now :
 -----------------------------------------------------------------------------
  energy-cutoff  :      600.00
  volume of cell :      773.53
      direct lattice vectors                 reciprocal lattice vectors
     5.112382028  0.000000000  0.000000000     0.195603536 -0.112931754  0.000000000
     2.556191014  4.427452710  0.000000000     0.000000000  0.225863508  0.000000000
     0.000000000  0.000000000 34.174242446     0.000000000  0.000000000  0.029261804

  length of vectors
     5.112382028  5.112382028 34.174242446     0.225863508  0.225863508  0.029261804


 FORCES acting on ions
    electron-ion (+dipol)            ewald-force                    non-local-force                 convergence-correction
 -----------------------------------------------------------------------------------------------
   -.362E+00 -.209E+00 0.341E+04   0.135E+00 0.779E-01 -.341E+04   0.208E+00 0.120E+00 -.203E+01   0.459E-03 0.265E-03 -.171E-01
   0.362E+00 -.209E+00 0.341E+04   -.135E+00 0.779E-01 -.341E+04   -.208E+00 0.120E+00 -.203E+01   -.459E-03 0.265E-03 -.171E-01
   0.264E-05 0.418E+00 0.341E+04   0.310E-11 -.156E+00 -.341E+04   -.502E-18 -.240E+00 -.203E+01   0.697E-09 -.530E-03 -.171E-01
   0.256E-05 0.148E-05 0.341E+04   0.315E-11 0.163E-11 -.341E+04   0.886E-17 -.441E-17 -.259E+01   -.442E-10 -.254E-10 -.177E-01
   -.243E-05 -.350E+01 0.322E+03   -.452E-11 0.301E+01 -.322E+03   -.136E-17 0.394E+00 -.428E+00   -.657E-09 0.958E-03 -.433E-01
   -.228E-05 -.132E-05 0.318E+03   -.476E-11 -.280E-11 -.318E+03   0.510E-17 -.600E-17 0.568E+00   0.178E-09 0.103E-09 -.421E-01
   0.303E+01 0.175E+01 0.322E+03   -.261E+01 -.151E+01 -.322E+03   -.342E+00 -.197E+00 -.428E+00   -.830E-03 -.479E-03 -.433E-01
   -.303E+01 0.175E+01 0.322E+03   0.261E+01 -.151E+01 -.322E+03   0.342E+00 -.197E+00 -.428E+00   0.830E-03 -.479E-03 -.433E-01
   0.589E-06 0.340E-06 -.265E+04   0.145E-11 0.111E-11 0.265E+04   -.560E-17 0.912E-18 0.165E+01   -.204E-09 -.118E-09 -.272E-01
   0.253E-06 0.209E-01 -.281E+04   0.149E-11 0.111E-11 0.280E+04   0.167E-16 0.258E-02 0.348E+01   -.601E-09 0.616E-03 -.303E-01
   0.181E-01 -.104E-01 -.281E+04   0.148E-11 0.109E-11 0.280E+04   0.223E-02 -.129E-02 0.348E+01   0.534E-03 -.308E-03 -.303E-01
   -.181E-01 -.104E-01 -.281E+04   0.152E-11 0.111E-11 0.280E+04   -.223E-02 -.129E-02 0.348E+01   -.534E-03 -.308E-03 -.303E-01
   -.910E-05 -.526E-05 -.245E+04   0.271E-15 -.239E-14 0.251E+04   -.281E-19 -.423E-19 -.601E+02   -.144E-09 -.832E-10 0.184E-02
   0.202E-05 0.117E-05 -.139E+04   0.381E-14 -.367E-14 0.137E+04   -.538E-20 0.461E-19 0.182E+02   -.985E-10 -.569E-10 -.348E-02
 -----------------------------------------------------------------------------------------------
   -.463E-05 -.267E-05 0.395E+02   -.114E-12 0.139E-13 0.682E-12   0.555E-16 -.139E-16 -.392E+02   -.881E-09 -.508E-09 -.361E+00
 
 
 POSITION                                       TOTAL-FORCE (eV/Angst)
 -----------------------------------------------------------------------------------
      1.27810      0.73791     15.00000        -0.018478     -0.010668      0.042782
      3.83429      0.73791     15.00000         0.018478     -0.010668      0.042782
      2.55619      2.95164     15.00000         0.000000      0.021337      0.042782
      5.11238      2.95164     15.00000         0.000000      0.000000      0.125626
      5.11238      1.47582     17.08712         0.000000     -0.097096      0.024865
      2.55619      1.47582     17.08712        -0.000000      0.000000      0.106957
      6.39048      3.68954     17.08712         0.084087      0.048548      0.024865
      3.83429      3.68954     17.08712        -0.084087      0.048548      0.024865
      0.00000      0.00000     19.17424         0.000000      0.000000      0.068805
      2.55619      0.00000     19.17424        -0.000000      0.024049     -0.199382
      1.27810      2.21373     19.17424         0.020827     -0.012025     -0.199382
      3.83429      2.21373     19.17424        -0.020827     -0.012025     -0.199382
      0.00000      0.00000     22.16599        -0.000000      0.000000      0.197830
      0.00000      0.00000     21.00791         0.000000      0.000000     -0.104010
 -----------------------------------------------------------------------------------
    total drift:                               -0.000005     -0.000003      0.000529


--------------------------------------------------------------------------------------------------------



  FREE ENERGIE OF THE ION-ELECTRON SYSTEM (eV)
  ---------------------------------------------------
  free  energy   TOTEN  =       -56.38952313 eV

  energy  without entropy=      -56.36539713  energy(sigma->0) =      -56.37746013
 
 d Force = 0.1052934E-04[-0.404E-06, 0.215E-04]  d Energy = 0.1295540E-04-0.243E-05
 d Force =-0.2174921E+01[-0.218E+01,-0.217E+01]  d Ewald  =-0.2174921E+01-0.375E-08


--------------------------------------------------------------------------------------------------------


    POTLOK:  cpu time      0.0212: real time      0.0214


--------------------------------------------------------------------------------------------------------




--------------------------------------------------------------------------------------------------------


    WAVPRE:  cpu time      0.0060: real time      0.0257
    FEWALD:  cpu time      0.0004: real time      0.0004
    ORTHCH:  cpu time      0.1503: real time      0.1523
     LOOP+:  cpu time     10.2395: real time     10.3639


--------------------------------------- Iteration      4(   1)  ---------------------------------------


    POTLOK:  cpu time      0.0196: real time      0.0199
    SETDIJ:  cpu time      0.0022: real time      0.0023
     EDDAV:  cpu time      1.3371: real time      1.3488
       DOS:  cpu time      0.0003: real time      0.0003
    CHARGE:  cpu time      0.0548: real time      0.0552
    MIXING:  cpu time      0.0005: real time      0.0005
    --------------------------------------------
      LOOP:  cpu time      1.4146: real time      1.4270

 eigenvalue-minimisations  :   992
 total energy-change (2. order) :-0.6650530E-04  (-0.2125906E-03)
 number of electron     142.0000061 magnetization 
 augmentation part       84.9191277 magnetization 

 Broyden mixing:
  rms(total) = 0.13288E-02    rms(broyden)= 0.13274E-02
  rms(prec ) = 0.13392E-02
  weight for this iteration     100.00

 Free energy of the ion-electron system (eV)
  ---------------------------------------------------
  alpha Z        PSCENC =       154.47939101
  Ewald energy   TEWEN  =    132704.95106023
  -Hartree energ DENC   =   -148653.62156764
  -exchange      EXHF   =         0.00000000
  -V(xc)+E(xc)   XCENC  =       574.88242556
  PAW double counting   =     16513.78110040   -17808.71971480
  entropy T*S    EENTRO =        -0.02414516
  eigenvalues    EBANDS =      -813.35992574
  atomic energy  EATOM  =     17271.24178720
  Solvation  Ecorr_sol  =         0.00000000
  ---------------------------------------------------
  free energy    TOTEN  =       -56.38958893 eV

  energy without entropy =      -56.36544377  energy(sigma->0) =      -56.37751635


--------------------------------------------------------------------------------------------------------




--------------------------------------- Iteration      4(   2)  ---------------------------------------


    POTLOK:  cpu time      0.0189: real time      0.0193
    SETDIJ:  cpu time      0.0014: real time      0.0014
     EDDAV:  cpu time      1.4531: real time      1.4656
       DOS:  cpu time      0.0003: real time      0.0003
    CHARGE:  cpu time      0.0588: real time      0.0591
    MIXING:  cpu time      0.0008: real time      0.0008
    --------------------------------------------
      LOOP:  cpu time      1.5332: real time      1.5465

 eigenvalue-minimisations  :  1088
 total energy-change (2. order) :-0.1813245E-05  (-0.3473051E-05)
 number of electron     142.0000061 magnetization 
 augmentation part       84.9187073 magnetization 

 Broyden mixing:
  rms(total) = 0.75004E-03    rms(broyden)= 0.74985E-03
  rms(prec ) = 0.77109E-03
  weight for this iteration     100.00

 eigenvalues of (default mixing * dielectric matrix)
  average eigenvalue GAMMA=   1.0074
  1.0074

 Free energy of the ion-electron system (eV)
  ---------------------------------------------------
  alpha Z        PSCENC =       154.47939101
  Ewald energy   TEWEN  =    132704.95106023
  -Hartree energ DENC   =   -148653.64388512
  -exchange      EXHF   =         0.00000000
  -V(xc)+E(xc)   XCENC  =       574.88253699
  PAW double counting   =     16513.54841784   -17808.48955200
  entropy T*S    EENTRO =        -0.02413808
  eigenvalues    EBANDS =      -813.33520882
  atomic energy  EATOM  =     17271.24178720
  Solvation  Ecorr_sol  =         0.00000000
  ---------------------------------------------------
  free energy    TOTEN  =       -56.38959074 eV

  energy without entropy =      -56.36545266  energy(sigma->0) =      -56.37752170


--------------------------------------------------------------------------------------------------------




--------------------------------------- Iteration      4(   3)  ---------------------------------------


    POTLOK:  cpu time      0.0202: real time      0.0206
    SETDIJ:  cpu time      0.0016: real time      0.0016
     EDDAV:  cpu time      1.5973: real time      1.6111
       DOS:  cpu time      0.0003: real time      0.0003
    --------------------------------------------
      LOOP:  cpu time      1.6194: real time      1.6336

 eigenvalue-minimisations  :  1056
 total energy-change (2. order) :-0.5364454E-06  (-0.8163652E-06)
 number of electron     142.0000061 magnetization 
 augmentation part       84.9187073 magnetization 

 Free energy of the ion-electron system (eV)
  ---------------------------------------------------
  alpha Z        PSCENC =       154.47939101
  Ewald energy   TEWEN  =    132704.95106023
  -Hartree energ DENC   =   -148653.61295820
  -exchange      EXHF   =         0.00000000
  -V(xc)+E(xc)   XCENC  =       574.88214686
  PAW double counting   =     16513.46549711   -17808.40092420
  entropy T*S    EENTRO =        -0.02414960
  eigenvalues    EBANDS =      -813.37144170
  atomic energy  EATOM  =     17271.24178720
  Solvation  Ecorr_sol  =         0.00000000
  ---------------------------------------------------
  free energy    TOTEN  =       -56.38959128 eV

  energy without entropy =      -56.36544168  energy(sigma->0) =      -56.37751648


--------------------------------------------------------------------------------------------------------




 average (electrostatic) potential at core
  the test charge radii are     0.9430  0.7215  0.6991
  (the norm of the test charge is              1.0000)
       1 -73.3189       2 -73.3189       3 -73.3189       4 -73.3938       5 -73.5473
       6 -73.5878       7 -73.5473       8 -73.5473       9 -74.3966      10 -73.2783
      11 -73.2783      12 -73.2783      13 -80.8356      14 -59.9359
 
 
 
 E-fermi :  -2.3563     XC(G=0):  -3.1735     alpha+bet : -2.6859

 Fermi energy:        -2.3563011976

 k-point     1 :       0.0000    0.0000    0.0000
  band No.  band energies     occupation 
      1     -26.6141      2.00000
      2     -12.2908      2.00000
      3     -10.8837      2.00000
      4      -9.7705      2.00000
      5      -9.3446      2.00000
      6      -9.3446      2.00000
      7      -8.6006      2.00000
      8      -7.5007      2.00000
      9      -7.0433      2.00000
     10      -7.0433      2.00000
     11      -6.9504      2.00000
     12      -6.9041      2.00000
     13      -6.9041      2.00000
     14      -6.7430      2.00000
     15      -6.5637      2.00000
     16      -6.5637      2.00000
     17      -6.4497      2.00000
     18      -6.4473      2.00000
     19      -6.4473      2.00000
     20      -6.3473      2.00000
     21      -6.0581      2.00000
     22      -6.0581      2.00000
     23      -5.6926      2.00000
     24      -5.4584      2.00000
     25      -5.4584      2.00000
     26      -5.4151      2.00000
     27      -5.3071      2.00000
     28      -5.2262      2.00000
     29      -5.2262      2.00000
     30      -5.1822      2.00000
     31      -5.1822      2.00000
     32      -5.1565      2.00000
     33      -5.0902      2.00000
     34      -5.0902      2.00000
     35      -5.0026      2.00000
     36      -4.9806      2.00000
     37      -4.9806      2.00000
     38      -4.9048      2.00000
     39      -4.8360      2.00000
     40      -4.8360      2.00000
     41      -4.7003      2.00000
     42      -4.7003      2.00000
     43      -4.4179      2.00000
     44      -4.4179      2.00000
     45      -4.3996      2.00000
     46      -4.3996      2.00000
     47      -4.3994      2.00000
     48      -4.3310      2.00000
     49      -4.1614      2.00000
     50      -4.1614      2.00000
     51      -4.0649      2.00000
     52      -4.0165      2.00000
     53      -4.0165      2.00000
     54      -3.9461      2.00000
     55      -3.9461      2.00000
     56      -3.9387      2.00000
     57      -3.9074      2.00000
     58      -3.9074      2.00000
     59      -3.8769      2.00000
     60      -3.8769      2.00000
     61      -3.8376      2.00000
     62      -3.8211      2.00000
     63      -3.8211      2.00000
     64      -3.6713      2.00000
     65      -3.6713      2.00000
     66      -3.6492      2.00000
     67      -3.5964      2.00000
     68      -3.2226      2.00000
     69      -2.5363      1.99746
     70      -2.5363      1.99746
     71      -2.2837      0.12705
     72      -1.5459      0.00000
     73      -1.5459      0.00000
     74      -1.2949      0.00000
     75      -1.1420      0.00000
     76      -0.8318      0.00000
     77      -0.8317      0.00000
     78      -0.7586      0.00000
     79       0.8513      0.00000
     80       0.8513      0.00000
     81       1.6231      0.00000
     82       2.1870      0.00000
     83       2.2020      0.00000
     84       2.2020      0.00000
     85       2.3495      0.00000
     86       2.5647      0.00000
     87       2.8916      0.00000
     88       3.0350      0.00000
     89       3.1158      0.00000
     90       3.1158      0.00000
     91       3.7010      0.00000
     92       3.7850      0.00000
     93       3.9405      0.00000
     94       4.1801      0.00000
     95       4.1801      0.00000
     96       4.9216      0.00000

 k-point     2 :       0.2000    0.0000    0.0000
  band No.  band energies     occupation 
      1     -26.6138      2.00000
      2     -12.2564      2.00000
      3     -10.6133      2.00000
      4      -9.6754      2.00000
      5      -9.3729      2.00000
      6      -9.3511      2.00000
      7      -8.3942      2.00000
      8      -7.3096      2.00000
      9      -7.2734      2.00000
     10      -6.9802      2.00000
     11      -6.9163      2.00000
     12      -6.8611      2.00000
     13      -6.7831      2.00000
     14      -6.6629      2.00000
     15      -6.4865      2.00000
     16      -6.4631      2.00000
     17      -6.4048      2.00000
     18      -6.3358      2.00000
     19      -6.3175      2.00000
     20      -6.2290      2.00000
     21      -6.0256      2.00000
     22      -6.0090      2.00000
     23      -5.6902      2.00000
     24      -5.4945      2.00000
     25      -5.4335      2.00000
     26      -5.4243      2.00000
     27      -5.3808      2.00000
     28      -5.3017      2.00000
     29      -5.2734      2.00000
     30      -5.2150      2.00000
     31      -5.2070      2.00000
     32      -5.1278      2.00000
     33      -5.1278      2.00000
     34      -5.0922      2.00000
     35      -5.0562      2.00000
     36      -5.0307      2.00000
     37      -4.9997      2.00000
     38      -4.9507      2.00000
     39      -4.9284      2.00000
     40      -4.8835      2.00000
     41      -4.7889      2.00000
     42      -4.7171      2.00000
     43      -4.5582      2.00000
     44      -4.5290      2.00000
     45      -4.4948      2.00000
     46      -4.4533      2.00000
     47      -4.4262      2.00000
     48      -4.3653      2.00000
     49      -4.3517      2.00000
     50      -4.2712      2.00000
     51      -4.2350      2.00000
     52      -4.1757      2.00000
     53      -4.1598      2.00000
     54      -4.0838      2.00000
     55      -4.0578      2.00000
     56      -4.0420      2.00000
     57      -4.0319      2.00000
     58      -4.0010      2.00000
     59      -4.0009      2.00000
     60      -3.9458      2.00000
     61      -3.9299      2.00000
     62      -3.9144      2.00000
     63      -3.8823      2.00000
     64      -3.8443      2.00000
     65      -3.8272      2.00000
     66      -3.7851      2.00000
     67      -3.7456      2.00000
     68      -3.6609      2.00000
     69      -2.9983      2.00000
     70      -2.5492      1.99842
     71      -2.4380      1.90752
     72      -2.3652      1.16380
     73      -1.6401      0.00000
     74      -1.5131      0.00000
     75      -0.9006      0.00000
     76      -0.2298      0.00000
     77      -0.1884      0.00000
     78       0.1987      0.00000
     79       1.1183      0.00000
     80       1.1283      0.00000
     81       1.9363      0.00000
     82       2.4993      0.00000
     83       2.6623      0.00000
     84       2.6847      0.00000
     85       2.8688      0.00000
     86       2.9943      0.00000
     87       3.2018      0.00000
     88       3.2203      0.00000
     89       3.3103      0.00000
     90       3.4480      0.00000
     91       4.0206      0.00000
     92       4.1314      0.00000
     93       4.2756      0.00000
     94       4.6611      0.00000
     95       4.7324      0.00000
     96       5.2381      0.00000

 k-point     3 :       0.4000    0.0000    0.0000
  band No.  band energies     occupation 
      1     -26.6133      2.00000
      2     -12.2072      2.00000
      3      -9.9637      2.00000
      4      -9.4543      2.00000
      5      -9.3615      2.00000
      6      -9.3485      2.00000
      7      -8.3091      2.00000
      8      -7.7467      2.00000
      9      -7.0507      2.00000
     10      -6.8366      2.00000
     11      -6.7561      2.00000
     12      -6.7193      2.00000
     13      -6.5289      2.00000
     14      -6.4682      2.00000
     15      -6.3752      2.00000
     16      -6.2251      2.00000
     17      -6.2008      2.00000
     18      -6.1439      2.00000
     19      -6.1426      2.00000
     20      -5.9823      2.00000
     21      -5.8882      2.00000
     22      -5.8609      2.00000
     23      -5.7847      2.00000
     24      -5.6850      2.00000
     25      -5.6380      2.00000
     26      -5.6074      2.00000
     27      -5.5501      2.00000
     28      -5.5025      2.00000
     29      -5.3862      2.00000
     30      -5.3789      2.00000
     31      -5.3380      2.00000
     32      -5.2318      2.00000
     33      -5.1925      2.00000
     34      -5.1350      2.00000
     35      -5.0811      2.00000
     36      -5.0283      2.00000
     37      -4.9940      2.00000
     38      -4.9807      2.00000
     39      -4.9337      2.00000
     40      -4.9054      2.00000
     41      -4.8880      2.00000
     42      -4.8379      2.00000
     43      -4.8354      2.00000
     44      -4.8152      2.00000
     45      -4.7958      2.00000
     46      -4.7517      2.00000
     47      -4.6220      2.00000
     48      -4.5820      2.00000
     49      -4.5570      2.00000
     50      -4.5290      2.00000
     51      -4.4677      2.00000
     52      -4.4319      2.00000
     53      -4.3642      2.00000
     54      -4.3279      2.00000
     55      -4.3273      2.00000
     56      -4.3066      2.00000
     57      -4.1924      2.00000
     58      -4.1772      2.00000
     59      -4.1609      2.00000
     60      -4.1395      2.00000
     61      -4.0995      2.00000
     62      -4.0588      2.00000
     63      -3.9489      2.00000
     64      -3.9441      2.00000
     65      -3.9032      2.00000
     66      -3.8732      2.00000
     67      -3.8503      2.00000
     68      -3.7814      2.00000
     69      -3.4968      2.00000
     70      -2.4295      1.87549
     71      -2.3753      1.33786
     72      -2.2427      0.02929
     73      -1.5615      0.00000
     74      -1.3971      0.00000
     75      -1.0537      0.00000
     76      -0.0321      0.00000
     77       0.0530      0.00000
     78       0.6665      0.00000
     79       1.3531      0.00000
     80       1.9262      0.00000
     81       2.4841      0.00000
     82       2.8796      0.00000
     83       3.4311      0.00000
     84       3.6204      0.00000
     85       3.6725      0.00000
     86       3.7905      0.00000
     87       4.1116      0.00000
     88       4.1428      0.00000
     89       4.2568      0.00000
     90       4.6045      0.00000
     91       4.9200      0.00000
     92       4.9672      0.00000
     93       5.0813      0.00000
     94       5.1994      0.00000
     95       5.3213      0.00000
     96       5.4992      0.00000

 k-point     4 :       0.4000    0.2000    0.0000
  band No.  band energies     occupation 
      1     -26.6134      2.00000
      2     -12.2164      2.00000
      3     -10.1325      2.00000
      4      -9.4960      2.00000
      5      -9.4030      2.00000
      6      -9.3688      2.00000
      7      -7.9705      2.00000
      8      -7.5821      2.00000
      9      -7.5083      2.00000
     10      -6.8955      2.00000
     11      -6.8104      2.00000
     12      -6.7306      2.00000
     13      -6.6091      2.00000
     14      -6.4534      2.00000
     15      -6.3356      2.00000
     16      -6.3001      2.00000
     17      -6.2639      2.00000
     18      -6.2011      2.00000
     19      -6.1591      2.00000
     20      -6.0610      2.00000
     21      -5.9293      2.00000
     22      -5.9072      2.00000
     23      -5.7272      2.00000
     24      -5.6213      2.00000
     25      -5.5959      2.00000
     26      -5.5446      2.00000
     27      -5.5130      2.00000
     28      -5.4388      2.00000
     29      -5.3684      2.00000
     30      -5.3425      2.00000
     31      -5.2867      2.00000
     32      -5.2487      2.00000
     33      -5.1677      2.00000
     34      -5.1394      2.00000
     35      -5.1175      2.00000
     36      -5.0860      2.00000
     37      -5.0293      2.00000
     38      -4.9544      2.00000
     39      -4.9219      2.00000
     40      -4.8947      2.00000
     41      -4.8416      2.00000
     42      -4.7845      2.00000
     43      -4.7613      2.00000
     44      -4.7041      2.00000
     45      -4.6702      2.00000
     46      -4.6512      2.00000
     47      -4.6139      2.00000
     48      -4.5659      2.00000
     49      -4.5505      2.00000
     50      -4.5427      2.00000
     51      -4.4217      2.00000
     52      -4.3752      2.00000
     53      -4.3441      2.00000
     54      -4.3233      2.00000
     55      -4.2428      2.00000
     56      -4.2175      2.00000
     57      -4.1524      2.00000
     58      -4.1127      2.00000
     59      -4.0723      2.00000
     60      -4.0368      2.00000
     61      -3.9994      2.00000
     62      -3.9750      2.00000
     63      -3.9400      2.00000
     64      -3.9282      2.00000
     65      -3.9005      2.00000
     66      -3.8617      2.00000
     67      -3.7913      2.00000
     68      -3.6060      2.00000
     69      -3.5760      2.00000
     70      -3.0499      2.00000
     71      -3.0142      2.00000
     72      -2.1354      0.00056
     73      -1.0756      0.00000
     74      -1.0162      0.00000
     75      -0.5372      0.00000
     76      -0.1641      0.00000
     77       0.4086      0.00000
     78       0.5576      0.00000
     79       0.8207      0.00000
     80       1.3348      0.00000
     81       2.4973      0.00000
     82       2.7188      0.00000
     83       2.9745      0.00000
     84       3.1308      0.00000
     85       3.4777      0.00000
     86       3.6198      0.00000
     87       3.8214      0.00000
     88       3.9172      0.00000
     89       4.3453      0.00000
     90       4.5582      0.00000
     91       4.6604      0.00000
     92       4.7819      0.00000
     93       4.8091      0.00000
     94       5.2592      0.00000
     95       5.3262      0.00000
     96       5.8158      0.00000

 k-point     5 :      -0.4000    0.2000    0.0000
  band No.  band energies     occupation 
      1     -26.6132      2.00000
      2     -12.1941      2.00000
      3      -9.7888      2.00000
      4      -9.4403      2.00000
      5      -9.3852      2.00000
      6      -8.8125      2.00000
      7      -8.6502      2.00000
      8      -7.6467      2.00000
      9      -7.2306      2.00000
     10      -7.1671      2.00000
     11      -6.6596      2.00000
     12      -6.4510      2.00000
     13      -6.3940      2.00000
     14      -6.3427      2.00000
     15      -6.2711      2.00000
     16      -6.1265      2.00000
     17      -6.1098      2.00000
     18      -6.0335      2.00000
     19      -6.0188      2.00000
     20      -5.9440      2.00000
     21      -5.9191      2.00000
     22      -5.8847      2.00000
     23      -5.8066      2.00000
     24      -5.7615      2.00000
     25      -5.7493      2.00000
     26      -5.6990      2.00000
     27      -5.6491      2.00000
     28      -5.5572      2.00000
     29      -5.4408      2.00000
     30      -5.4122      2.00000
     31      -5.3858      2.00000
     32      -5.3324      2.00000
     33      -5.3035      2.00000
     34      -5.2609      2.00000
     35      -5.2183      2.00000
     36      -5.1754      2.00000
     37      -5.1166      2.00000
     38      -5.0607      2.00000
     39      -5.0257      2.00000
     40      -4.9941      2.00000
     41      -4.9323      2.00000
     42      -4.9245      2.00000
     43      -4.9041      2.00000
     44      -4.8332      2.00000
     45      -4.7801      2.00000
     46      -4.6758      2.00000
     47      -4.5938      2.00000
     48      -4.5663      2.00000
     49      -4.5381      2.00000
     50      -4.4803      2.00000
     51      -4.4432      2.00000
     52      -4.4359      2.00000
     53      -4.4059      2.00000
     54      -4.3448      2.00000
     55      -4.2878      2.00000
     56      -4.2682      2.00000
     57      -4.2054      2.00000
     58      -4.1769      2.00000
     59      -4.1178      2.00000
     60      -4.1062      2.00000
     61      -4.0933      2.00000
     62      -4.0217      2.00000
     63      -4.0037      2.00000
     64      -3.9769      2.00000
     65      -3.9433      2.00000
     66      -3.9225      2.00000
     67      -3.8829      2.00000
     68      -3.8625      2.00000
     69      -3.5801      2.00000
     70      -3.4291      2.00000
     71      -2.8697      2.00000
     72      -2.0731      0.00006
     73      -1.3428      0.00000
     74      -0.7173      0.00000
     75      -0.2199      0.00000
     76      -0.0735      0.00000
     77       0.3895      0.00000
     78       1.2816      0.00000
     79       1.3409      0.00000
     80       1.9473      0.00000
     81       2.6319      0.00000
     82       2.7223      0.00000
     83       3.2068      0.00000
     84       3.6522      0.00000
     85       3.7548      0.00000
     86       4.1955      0.00000
     87       4.3241      0.00000
     88       4.3689      0.00000
     89       4.5467      0.00000
     90       4.6946      0.00000
     91       4.7257      0.00000
     92       4.9703      0.00000
     93       5.0235      0.00000
     94       5.0602      0.00000
     95       5.1162      0.00000
     96       5.2025      0.00000


--------------------------------------------------------------------------------------------------------


 soft charge-density along one line, spin component           1
         0         1         2         3         4         5         6         7         8         9
 total charge-density along one line
 
 pseudopotential strength for first ion, spin component:           1
 -9.912  -0.001  -0.004  -0.005  -0.000   0.575   0.001   0.003
 -0.001  -9.873  -0.001   0.003  -0.003   0.001   0.544   0.001
 -0.004  -0.001  -9.865  -0.002  -0.002   0.003   0.001   0.537
 -0.005   0.003  -0.002  -9.870  -0.001   0.004  -0.002   0.002
 -0.000  -0.003  -0.002  -0.001  -9.911   0.000   0.002   0.002
  0.575   0.001   0.003   0.004   0.000   6.584  -0.001  -0.002
  0.001   0.544   0.001  -0.002   0.002  -0.001   6.606  -0.001
  0.003   0.001   0.537   0.002   0.002  -0.002  -0.001   6.612
  0.004  -0.002   0.002   0.542   0.001  -0.003   0.002  -0.001
  0.000   0.002   0.002   0.001   0.575  -0.000  -0.002  -0.001
 -0.001   0.000  -0.008   0.001  -0.000   0.000  -0.000   0.003
 -0.001   0.001  -0.014   0.001  -0.001   0.001  -0.000   0.005
  0.001  -0.010  -0.000   0.000  -0.000  -0.001   0.010   0.000
  0.000   0.001  -0.009   0.001   0.000  -0.000  -0.000   0.009
  0.001   0.000  -0.001  -0.009   0.001  -0.000  -0.000   0.000
  0.001  -0.011  -0.000   0.000  -0.000  -0.001   0.012   0.000
  0.000   0.001  -0.010   0.001   0.000  -0.000  -0.000   0.011
  0.001   0.000  -0.001  -0.011   0.001  -0.000  -0.000   0.000
 total augmentation occupancy for first ion, spin component:           1
  1.908  -0.000  -0.002  -0.005  -0.001  -0.016   0.000   0.000   0.005   0.000  -0.000  -0.000  -0.001   0.001   0.006   0.001
 -0.000   1.924  -0.002   0.001  -0.005  -0.000  -0.032   0.000  -0.000   0.005  -0.004   0.000   0.007   0.000   0.002  -0.009
 -0.002  -0.002   1.926  -0.003  -0.001   0.000   0.000  -0.028   0.001   0.000  -0.004   0.013  -0.001   0.053  -0.003  -0.000
 -0.005   0.001  -0.003   1.925  -0.000   0.005  -0.000   0.001  -0.032  -0.000  -0.008   0.000   0.002   0.000   0.009  -0.000
 -0.001  -0.005  -0.001  -0.000   1.909   0.000   0.005   0.000   0.000  -0.016  -0.000  -0.000   0.008   0.001  -0.001  -0.001
 -0.016  -0.000   0.000   0.005   0.000   0.014  -0.000  -0.000   0.000  -0.000  -0.000   0.000   0.000  -0.000   0.003  -0.000
  0.000  -0.032   0.000  -0.000   0.005  -0.000   0.010  -0.000  -0.000   0.000   0.001   0.000   0.017  -0.000  -0.000  -0.001
  0.000   0.000  -0.028   0.001   0.000  -0.000  -0.000   0.013  -0.000  -0.000  -0.043   0.002   0.000   0.022   0.001  -0.000
  0.005  -0.000   0.001  -0.032   0.000   0.000  -0.000  -0.000   0.010  -0.000   0.001   0.000  -0.000  -0.000   0.017   0.000
  0.000   0.005   0.000  -0.000  -0.016  -0.000   0.000  -0.000  -0.000   0.014  -0.000   0.000   0.002  -0.000   0.000  -0.000
 -0.000  -0.004  -0.004  -0.008  -0.000  -0.000   0.001  -0.043   0.001  -0.000   1.699  -0.135  -0.002   0.131  -0.003   0.000
 -0.000   0.000   0.013   0.000  -0.000   0.000   0.000   0.002   0.000   0.000  -0.135   0.016  -0.000  -0.022  -0.000  -0.000
 -0.001   0.007  -0.001   0.002   0.008   0.000   0.017   0.000  -0.000   0.002  -0.002  -0.000   0.209   0.001   0.000  -0.013
  0.001   0.000   0.053   0.000   0.001  -0.000  -0.000   0.022  -0.000  -0.000   0.131  -0.022   0.001   0.127   0.001  -0.000
  0.006   0.002  -0.003   0.009  -0.001   0.003  -0.000   0.001   0.017   0.000  -0.003  -0.000   0.000   0.001   0.209   0.000
  0.001  -0.009  -0.000  -0.000  -0.001  -0.000  -0.001  -0.000   0.000  -0.000   0.000  -0.000  -0.013  -0.000   0.000   0.001
  0.000   0.000  -0.014   0.001   0.000   0.000  -0.000  -0.001  -0.000   0.000  -0.019   0.002  -0.000  -0.009  -0.000   0.000
 -0.000  -0.000  -0.000  -0.009   0.001  -0.000   0.000  -0.000  -0.001  -0.000   0.000  -0.000   0.000  -0.000  -0.013  -0.000


------------------------ aborting loop because EDIFF is reached ----------------------------------------


    CHARGE:  cpu time      0.0632: real time      0.0637
    FORLOC:  cpu time      0.0021: real time      0.0022
    FORNL :  cpu time      0.1649: real time      0.1663
    STRESS:  cpu time      1.5569: real time      1.5688
    FORCOR:  cpu time      0.0184: real time      0.0185
    FORHAR:  cpu time      0.0047: real time      0.0047
    MIXING:  cpu time      0.0006: real time      0.0006
    OFIELD:  cpu time      0.0000: real time      0.0000

  FORCE on cell =-STRESS in cart. coord.  units (eV):
  Direction    XX          YY          ZZ          XY          YZ          ZX
  --------------------------------------------------------------------------------------
  Alpha Z   154.47939   154.47939   154.47939
  Ewald  141430.75502141430.75502************    -0.00000    -0.00000    -0.00000
  Hartree145604.96380145604.96380************     0.00000    -0.00000    -0.00000
  E(xc)    -814.54124  -814.54111  -814.93567    -0.00011     0.00000     0.00000
  Local  ************************291272.32576     0.00208    -0.00000    -0.00000
  n-local  -272.24020  -283.92173  -292.18636    -6.56038    -0.04412    -0.02896
  augment  1142.14483  1142.14695  1143.25169    -0.00183     0.00001     0.00001
  Kinetic  1267.99985  1270.77587  1248.69652     2.09510    -0.96836     1.22307
  Fock        0.00000     0.00000     0.00000     0.00000     0.00000     0.00000
  -------------------------------------------------------------------------------------
  Total      -1.51663    -1.51663    -1.10767     0.00000     0.00000     0.00000
  in kB      -3.14133    -3.14133    -2.29428     0.00000     0.00000     0.00000
  external pressure =       -2.86 kB  Pullay stress =        0.00 kB


 VOLUME and BASIS-vectors are now :
 -----------------------------------------------------------------------------
  energy-cutoff  :      600.00
  volume of cell :      773.53
      direct lattice vectors                 reciprocal lattice vectors
     5.112382028  0.000000000  0.000000000     0.195603536 -0.112931754  0.000000000
     2.556191014  4.427452710  0.000000000     0.000000000  0.225863508  0.000000000
     0.000000000  0.000000000 34.174242446     0.000000000  0.000000000  0.029261804

  length of vectors
     5.112382028  5.112382028 34.174242446     0.225863508  0.225863508  0.029261804


 FORCES acting on ions
    electron-ion (+dipol)            ewald-force                    non-local-force                 convergence-correction
 -----------------------------------------------------------------------------------------------
   -.361E+00 -.208E+00 0.341E+04   0.135E+00 0.778E-01 -.341E+04   0.208E+00 0.120E+00 -.203E+01   -.524E-03 -.303E-03 0.185E-01
   0.361E+00 -.208E+00 0.341E+04   -.135E+00 0.778E-01 -.341E+04   -.208E+00 0.120E+00 -.203E+01   0.524E-03 -.303E-03 0.185E-01
   0.264E-05 0.416E+00 0.341E+04   0.310E-11 -.156E+00 -.341E+04   -.220E-17 -.240E+00 -.203E+01   -.995E-11 0.605E-03 0.185E-01
   0.256E-05 0.148E-05 0.341E+04   0.315E-11 0.163E-11 -.341E+04   0.523E-17 0.116E-16 -.259E+01   0.709E-10 0.410E-10 0.199E-01
   -.243E-05 -.350E+01 0.322E+03   -.452E-11 0.301E+01 -.322E+03   -.349E-17 0.394E+00 -.429E+00   -.325E-08 0.362E-02 0.420E-01
   -.228E-05 -.132E-05 0.318E+03   -.476E-11 -.281E-11 -.318E+03   0.474E-17 0.344E-17 0.566E+00   0.300E-09 0.173E-09 0.448E-01
   0.303E+01 0.175E+01 0.322E+03   -.261E+01 -.150E+01 -.322E+03   -.341E+00 -.197E+00 -.429E+00   -.313E-02 -.181E-02 0.420E-01
   -.303E+01 0.175E+01 0.322E+03   0.261E+01 -.150E+01 -.322E+03   0.341E+00 -.197E+00 -.429E+00   0.313E-02 -.181E-02 0.420E-01
   0.591E-06 0.341E-06 -.265E+04   0.145E-11 0.111E-11 0.265E+04   0.101E-17 0.156E-17 0.166E+01   -.836E-10 -.483E-10 0.385E-01
   0.255E-06 0.219E-01 -.281E+04   0.149E-11 0.111E-11 0.280E+04   -.364E-17 0.262E-02 0.348E+01   -.480E-09 -.448E-03 0.311E-01
   0.189E-01 -.109E-01 -.281E+04   0.147E-11 0.109E-11 0.280E+04   0.227E-02 -.131E-02 0.348E+01   -.388E-03 0.224E-03 0.311E-01
   -.189E-01 -.109E-01 -.281E+04   0.152E-11 0.111E-11 0.280E+04   -.227E-02 -.131E-02 0.348E+01   0.388E-03 0.224E-03 0.311E-01
   -.909E-05 -.525E-05 -.245E+04   0.903E-14 -.737E-14 0.251E+04   -.354E-19 0.122E-19 -.601E+02   -.126E-09 -.725E-10 -.357E-02
   0.200E-05 0.116E-05 -.139E+04   0.982E-14 0.814E-14 0.137E+04   -.745E-19 -.120E-18 0.182E+02   -.130E-09 -.748E-10 0.842E-02
 -----------------------------------------------------------------------------------------------
   -.464E-05 -.268E-05 0.388E+02   -.114E-12 0.139E-13 0.000E+00   -.139E-15 0.138E-16 -.392E+02   0.611E-09 0.353E-09 0.383E+00
 
 
 POSITION                                       TOTAL-FORCE (eV/Angst)
 -----------------------------------------------------------------------------------
      1.27810      0.73791     15.00000        -0.018429     -0.010640      0.042847
      3.83429      0.73791     15.00000         0.018429     -0.010640      0.042847
      2.55619      2.95164     15.00000        -0.000000      0.021280      0.042847
      5.11238      2.95164     15.00000        -0.000000      0.000000      0.125492
      5.11238      1.47582     17.08712        -0.000000     -0.096984      0.025431
      2.55619      1.47582     17.08712        -0.000000      0.000000      0.107242
      6.39048      3.68954     17.08712         0.083991      0.048492      0.025431
      3.83429      3.68954     17.08712        -0.083991      0.048492      0.025431
      0.00000      0.00000     19.17424        -0.000000      0.000000      0.074446
      2.55619      0.00000     19.17424        -0.000000      0.024036     -0.199354
      1.27810      2.21373     19.17424         0.020816     -0.012018     -0.199354
      3.83429      2.21373     19.17424        -0.020816     -0.012018     -0.199354
      0.00000      0.00000     22.16661        -0.000000      0.000000      0.181797
      0.00000      0.00000     21.00840        -0.000000      0.000000     -0.095748
 -----------------------------------------------------------------------------------
    total drift:                               -0.000005     -0.000003      0.003258


--------------------------------------------------------------------------------------------------------



  FREE ENERGIE OF THE ION-ELECTRON SYSTEM (eV)
  ---------------------------------------------------
  free  energy   TOTEN  =       -56.38959128 eV

  energy  without entropy=      -56.36544168  energy(sigma->0) =      -56.37751648
 
 d Force = 0.6819473E-04[ 0.653E-04, 0.711E-04]  d Energy = 0.6814986E-04 0.449E-07
 d Force = 0.2226996E+01[ 0.223E+01, 0.223E+01]  d Ewald  = 0.2226996E+01 0.256E-08


--------------------------------------------------------------------------------------------------------


    POTLOK:  cpu time      0.0211: real time      0.0235


--------------------------------------------------------------------------------------------------------


 Conjugate gradient step on ions:
 trial-energy change:   -0.000068  1 .order   -0.000068   -0.000071   -0.000065
  (g-gl).g = 0.241E-02      g.g   = 0.241E-02  gl.gl    = 0.460E-03
 g(Force)  = 0.241E-02   g(Stress)= 0.000E+00 ortho     = 0.208E-05
 gamma     =   5.23738
 trial     =   0.02938
 opt step  =   0.11751  (harmonic =   0.35735) maximal distance =0.00247535
 next E    =   -56.389956   (d E  =  -0.00043)


--------------------------------------------------------------------------------------------------------


    WAVPRE:  cpu time      0.0059: real time      0.0226
    FEWALD:  cpu time      0.0003: real time      0.0003
    ORTHCH:  cpu time      0.1435: real time      0.1454
     LOOP+:  cpu time      6.5520: real time      6.6443


--------------------------------------- Iteration      5(   1)  ---------------------------------------


    POTLOK:  cpu time      0.0199: real time      0.0202
    SETDIJ:  cpu time      0.0015: real time      0.0015
     EDDAV:  cpu time      1.2997: real time      1.3111
       DOS:  cpu time      0.0003: real time      0.0003
    CHARGE:  cpu time      0.0554: real time      0.0558
    MIXING:  cpu time      0.0009: real time      0.0009
    --------------------------------------------
      LOOP:  cpu time      1.3776: real time      1.3898

 eigenvalue-minimisations  :   960
 total energy-change (2. order) :-0.1548953E-03  (-0.1914656E-02)
 number of electron     142.0000062 magnetization 
 augmentation part       84.9195158 magnetization 

 Broyden mixing:
  rms(total) = 0.41554E-02    rms(broyden)= 0.41512E-02
  rms(prec ) = 0.41857E-02
  weight for this iteration     100.00

 Free energy of the ion-electron system (eV)
  ---------------------------------------------------
  alpha Z        PSCENC =       154.47939101
  Ewald energy   TEWEN  =    132698.27082701
  -Hartree energ DENC   =   -148647.01284797
  -exchange      EXHF   =         0.00000000
  -V(xc)+E(xc)   XCENC  =       574.87700608
  PAW double counting   =     16513.43176075   -17808.36782608
  entropy T*S    EENTRO =        -0.02416360
  eigenvalues    EBANDS =      -813.28568004
  atomic energy  EATOM  =     17271.24178720
  Solvation  Ecorr_sol  =         0.00000000
  ---------------------------------------------------
  free energy    TOTEN  =       -56.38974564 eV

  energy without entropy =      -56.36558203  energy(sigma->0) =      -56.37766384


--------------------------------------------------------------------------------------------------------




--------------------------------------- Iteration      5(   2)  ---------------------------------------


    POTLOK:  cpu time      0.0192: real time      0.0197
    SETDIJ:  cpu time      0.0014: real time      0.0014
     EDDAV:  cpu time      1.5790: real time      1.5929
       DOS:  cpu time      0.0003: real time      0.0003
    CHARGE:  cpu time      0.0555: real time      0.0559
    MIXING:  cpu time      0.0006: real time      0.0006
    --------------------------------------------
      LOOP:  cpu time      1.6562: real time      1.6708

 eigenvalue-minimisations  :  1248
 total energy-change (2. order) :-0.1932079E-04  (-0.3038510E-04)
 number of electron     142.0000062 magnetization 
 augmentation part       84.9182959 magnetization 

 Broyden mixing:
  rms(total) = 0.24902E-02    rms(broyden)= 0.24897E-02
  rms(prec ) = 0.25382E-02
  weight for this iteration     100.00

 eigenvalues of (default mixing * dielectric matrix)
  average eigenvalue GAMMA=   0.9565
  0.9565

 Free energy of the ion-electron system (eV)
  ---------------------------------------------------
  alpha Z        PSCENC =       154.47939101
  Ewald energy   TEWEN  =    132698.27082701
  -Hartree energ DENC   =   -148647.06460734
  -exchange      EXHF   =         0.00000000
  -V(xc)+E(xc)   XCENC  =       574.87732597
  PAW double counting   =     16512.73178708   -17807.67476261
  entropy T*S    EENTRO =        -0.02417442
  eigenvalues    EBANDS =      -813.22733887
  atomic energy  EATOM  =     17271.24178720
  Solvation  Ecorr_sol  =         0.00000000
  ---------------------------------------------------
  free energy    TOTEN  =       -56.38976496 eV

  energy without entropy =      -56.36559053  energy(sigma->0) =      -56.37767775


--------------------------------------------------------------------------------------------------------




--------------------------------------- Iteration      5(   3)  ---------------------------------------


    POTLOK:  cpu time      0.0196: real time      0.0200
    SETDIJ:  cpu time      0.0015: real time      0.0015
     EDDAV:  cpu time      1.3804: real time      1.3925
       DOS:  cpu time      0.0003: real time      0.0003
    CHARGE:  cpu time      0.0571: real time      0.0574
    MIXING:  cpu time      0.0012: real time      0.0012
    --------------------------------------------
      LOOP:  cpu time      1.4600: real time      1.4730

 eigenvalue-minimisations  :  1024
 total energy-change (2. order) :-0.3640474E-05  (-0.7319627E-05)
 number of electron     142.0000062 magnetization 
 augmentation part       84.9195945 magnetization 

 Broyden mixing:
  rms(total) = 0.25535E-02    rms(broyden)= 0.25534E-02
  rms(prec ) = 0.26497E-02
  weight for this iteration     100.00

 eigenvalues of (default mixing * dielectric matrix)
  average eigenvalue GAMMA=   0.9738
  1.5421  0.4055

 Free energy of the ion-electron system (eV)
  ---------------------------------------------------
  alpha Z        PSCENC =       154.47939101
  Ewald energy   TEWEN  =    132698.27082701
  -Hartree energ DENC   =   -148646.98006318
  -exchange      EXHF   =         0.00000000
  -V(xc)+E(xc)   XCENC  =       574.87622281
  PAW double counting   =     16512.48762219   -17807.41528309
  entropy T*S    EENTRO =        -0.02414180
  eigenvalues    EBANDS =      -813.32613077
  atomic energy  EATOM  =     17271.24178720
  Solvation  Ecorr_sol  =         0.00000000
  ---------------------------------------------------
  free energy    TOTEN  =       -56.38976860 eV

  energy without entropy =      -56.36562680  energy(sigma->0) =      -56.37769770


--------------------------------------------------------------------------------------------------------




--------------------------------------- Iteration      5(   4)  ---------------------------------------


    POTLOK:  cpu time      0.0199: real time      0.0202
    SETDIJ:  cpu time      0.0014: real time      0.0014
     EDDAV:  cpu time      1.3581: real time      1.3701
       DOS:  cpu time      0.0003: real time      0.0003
    CHARGE:  cpu time      0.0554: real time      0.0558
    MIXING:  cpu time      0.0008: real time      0.0009
    --------------------------------------------
      LOOP:  cpu time      1.4359: real time      1.4486

 eigenvalue-minimisations  :   992
 total energy-change (2. order) : 0.4833753E-05  (-0.5153758E-05)
 number of electron     142.0000062 magnetization 
 augmentation part       84.9193205 magnetization 

 Broyden mixing:
  rms(total) = 0.89867E-03    rms(broyden)= 0.89860E-03
  rms(prec ) = 0.97288E-03
  weight for this iteration     100.00

 eigenvalues of (default mixing * dielectric matrix)
  average eigenvalue GAMMA=   1.1452
  2.2032  0.8588  0.3736

 Free energy of the ion-electron system (eV)
  ---------------------------------------------------
  alpha Z        PSCENC =       154.47939101
  Ewald energy   TEWEN  =    132698.27082701
  -Hartree energ DENC   =   -148646.96912452
  -exchange      EXHF   =         0.00000000
  -V(xc)+E(xc)   XCENC  =       574.87659480
  PAW double counting   =     16512.35010382   -17807.27781064
  entropy T*S    EENTRO =        -0.02417840
  eigenvalues    EBANDS =      -813.33735405
  atomic energy  EATOM  =     17271.24178720
  Solvation  Ecorr_sol  =         0.00000000
  ---------------------------------------------------
  free energy    TOTEN  =       -56.38976377 eV

  energy without entropy =      -56.36558537  energy(sigma->0) =      -56.37767457


--------------------------------------------------------------------------------------------------------




--------------------------------------- Iteration      5(   5)  ---------------------------------------


    POTLOK:  cpu time      0.0193: real time      0.0196
    SETDIJ:  cpu time      0.0015: real time      0.0015
     EDDAV:  cpu time      1.3928: real time      1.4046
       DOS:  cpu time      0.0003: real time      0.0003
    CHARGE:  cpu time      0.0565: real time      0.0569
    MIXING:  cpu time      0.0008: real time      0.0008
    --------------------------------------------
      LOOP:  cpu time      1.4712: real time      1.4837

 eigenvalue-minimisations  :  1024
 total energy-change (2. order) :-0.3208035E-05  (-0.3736406E-05)
 number of electron     142.0000062 magnetization 
 augmentation part       84.9187087 magnetization 

 Broyden mixing:
  rms(total) = 0.84549E-03    rms(broyden)= 0.84544E-03
  rms(prec ) = 0.10234E-02
  weight for this iteration     100.00

 eigenvalues of (default mixing * dielectric matrix)
  average eigenvalue GAMMA=   1.0159
  2.3800  0.9332  0.4192  0.3312

 Free energy of the ion-electron system (eV)
  ---------------------------------------------------
  alpha Z        PSCENC =       154.47939101
  Ewald energy   TEWEN  =    132698.27082701
  -Hartree energ DENC   =   -148646.99983354
  -exchange      EXHF   =         0.00000000
  -V(xc)+E(xc)   XCENC  =       574.87719951
  PAW double counting   =     16512.26211520   -17807.19511772
  entropy T*S    EENTRO =        -0.02414006
  eigenvalues    EBANDS =      -813.30199558
  atomic energy  EATOM  =     17271.24178720
  Solvation  Ecorr_sol  =         0.00000000
  ---------------------------------------------------
  free energy    TOTEN  =       -56.38976697 eV

  energy without entropy =      -56.36562691  energy(sigma->0) =      -56.37769694


--------------------------------------------------------------------------------------------------------




--------------------------------------- Iteration      5(   6)  ---------------------------------------


    POTLOK:  cpu time      0.0191: real time      0.0195
    SETDIJ:  cpu time      0.0014: real time      0.0015
     EDDAV:  cpu time      1.2535: real time      1.2638
       DOS:  cpu time      0.0003: real time      0.0003
    CHARGE:  cpu time      0.0551: real time      0.0555
    MIXING:  cpu time      0.0007: real time      0.0007
    --------------------------------------------
      LOOP:  cpu time      1.3301: real time      1.3412

 eigenvalue-minimisations  :   832
 total energy-change (2. order) : 0.1524098E-05  (-0.1844803E-05)
 number of electron     142.0000062 magnetization 
 augmentation part       84.9188398 magnetization 

 Broyden mixing:
  rms(total) = 0.28020E-03    rms(broyden)= 0.28015E-03
  rms(prec ) = 0.30226E-03
  weight for this iteration     100.00

 eigenvalues of (default mixing * dielectric matrix)
  average eigenvalue GAMMA=   0.9737
  2.4793  1.0393  0.6614  0.3881  0.3004

 Free energy of the ion-electron system (eV)
  ---------------------------------------------------
  alpha Z        PSCENC =       154.47939101
  Ewald energy   TEWEN  =    132698.27082701
  -Hartree energ DENC   =   -148646.98929601
  -exchange      EXHF   =         0.00000000
  -V(xc)+E(xc)   XCENC  =       574.87709062
  PAW double counting   =     16512.22157948   -17807.15231565
  entropy T*S    EENTRO =        -0.02416912
  eigenvalues    EBANDS =      -813.31465998
  atomic energy  EATOM  =     17271.24178720
  Solvation  Ecorr_sol  =         0.00000000
  ---------------------------------------------------
  free energy    TOTEN  =       -56.38976545 eV

  energy without entropy =      -56.36559633  energy(sigma->0) =      -56.37768089


--------------------------------------------------------------------------------------------------------




--------------------------------------- Iteration      5(   7)  ---------------------------------------


    POTLOK:  cpu time      0.0190: real time      0.0194
    SETDIJ:  cpu time      0.0015: real time      0.0015
     EDDAV:  cpu time      1.2380: real time      1.2484
       DOS:  cpu time      0.0003: real time      0.0003
    --------------------------------------------
      LOOP:  cpu time      1.2589: real time      1.2696

 eigenvalue-minimisations  :   736
 total energy-change (2. order) :-0.3200330E-07  (-0.1106385E-06)
 number of electron     142.0000062 magnetization 
 augmentation part       84.9188398 magnetization 

 Free energy of the ion-electron system (eV)
  ---------------------------------------------------
  alpha Z        PSCENC =       154.47939101
  Ewald energy   TEWEN  =    132698.27082701
  -Hartree energ DENC   =   -148646.98015584
  -exchange      EXHF   =         0.00000000
  -V(xc)+E(xc)   XCENC  =       574.87685471
  PAW double counting   =     16512.19980850   -17807.12822736
  entropy T*S    EENTRO =        -0.02416344
  eigenvalues    EBANDS =      -813.32588728
  atomic energy  EATOM  =     17271.24178720
  Solvation  Ecorr_sol  =         0.00000000
  ---------------------------------------------------
  free energy    TOTEN  =       -56.38976548 eV

  energy without entropy =      -56.36560204  energy(sigma->0) =      -56.37768376


--------------------------------------------------------------------------------------------------------




 average (electrostatic) potential at core
  the test charge radii are     0.9430  0.7215  0.6991
  (the norm of the test charge is              1.0000)
       1 -73.3188       2 -73.3188       3 -73.3188       4 -73.3934       5 -73.5476
       6 -73.5877       7 -73.5476       8 -73.5476       9 -74.3923      10 -73.2791
      11 -73.2791      12 -73.2791      13 -80.8355      14 -59.9369
 
 
 
 E-fermi :  -2.3564     XC(G=0):  -3.1718     alpha+bet : -2.6859

 Fermi energy:        -2.3563744893

 k-point     1 :       0.0000    0.0000    0.0000
  band No.  band energies     occupation 
      1     -26.6094      2.00000
      2     -12.2892      2.00000
      3     -10.8839      2.00000
      4      -9.7678      2.00000
      5      -9.3412      2.00000
      6      -9.3411      2.00000
      7      -8.5991      2.00000
      8      -7.5001      2.00000
      9      -7.0430      2.00000
     10      -7.0429      2.00000
     11      -6.9507      2.00000
     12      -6.9034      2.00000
     13      -6.9034      2.00000
     14      -6.7432      2.00000
     15      -6.5630      2.00000
     16      -6.5630      2.00000
     17      -6.4498      2.00000
     18      -6.4468      2.00000
     19      -6.4468      2.00000
     20      -6.3473      2.00000
     21      -6.0563      2.00000
     22      -6.0563      2.00000
     23      -5.6929      2.00000
     24      -5.4580      2.00000
     25      -5.4580      2.00000
     26      -5.4151      2.00000
     27      -5.3073      2.00000
     28      -5.2264      2.00000
     29      -5.2264      2.00000
     30      -5.1819      2.00000
     31      -5.1819      2.00000
     32      -5.1566      2.00000
     33      -5.0903      2.00000
     34      -5.0903      2.00000
     35      -5.0029      2.00000
     36      -4.9804      2.00000
     37      -4.9804      2.00000
     38      -4.9048      2.00000
     39      -4.8359      2.00000
     40      -4.8359      2.00000
     41      -4.7000      2.00000
     42      -4.7000      2.00000
     43      -4.4180      2.00000
     44      -4.4180      2.00000
     45      -4.3997      2.00000
     46      -4.3997      2.00000
     47      -4.3995      2.00000
     48      -4.3313      2.00000
     49      -4.1616      2.00000
     50      -4.1616      2.00000
     51      -4.0647      2.00000
     52      -4.0164      2.00000
     53      -4.0164      2.00000
     54      -3.9461      2.00000
     55      -3.9461      2.00000
     56      -3.9390      2.00000
     57      -3.9076      2.00000
     58      -3.9076      2.00000
     59      -3.8771      2.00000
     60      -3.8771      2.00000
     61      -3.8380      2.00000
     62      -3.8212      2.00000
     63      -3.8212      2.00000
     64      -3.6710      2.00000
     65      -3.6710      2.00000
     66      -3.6491      2.00000
     67      -3.5972      2.00000
     68      -3.2230      2.00000
     69      -2.5361      1.99743
     70      -2.5361      1.99743
     71      -2.2837      0.12693
     72      -1.5460      0.00000
     73      -1.5460      0.00000
     74      -1.2959      0.00000
     75      -1.1422      0.00000
     76      -0.8318      0.00000
     77      -0.8318      0.00000
     78      -0.7585      0.00000
     79       0.8469      0.00000
     80       0.8469      0.00000
     81       1.6248      0.00000
     82       2.1875      0.00000
     83       2.2015      0.00000
     84       2.2016      0.00000
     85       2.3493      0.00000
     86       2.5682      0.00000
     87       2.8905      0.00000
     88       3.0416      0.00000
     89       3.1160      0.00000
     90       3.1160      0.00000
     91       3.7013      0.00000
     92       3.7871      0.00000
     93       3.9400      0.00000
     94       4.1796      0.00000
     95       4.1796      0.00000
     96       4.9222      0.00000

 k-point     2 :       0.2000    0.0000    0.0000
  band No.  band energies     occupation 
      1     -26.6091      2.00000
      2     -12.2548      2.00000
      3     -10.6133      2.00000
      4      -9.6724      2.00000
      5      -9.3694      2.00000
      6      -9.3476      2.00000
      7      -8.3931      2.00000
      8      -7.3095      2.00000
      9      -7.2728      2.00000
     10      -6.9797      2.00000
     11      -6.9162      2.00000
     12      -6.8608      2.00000
     13      -6.7825      2.00000
     14      -6.6629      2.00000
     15      -6.4859      2.00000
     16      -6.4624      2.00000
     17      -6.4046      2.00000
     18      -6.3352      2.00000
     19      -6.3171      2.00000
     20      -6.2288      2.00000
     21      -6.0240      2.00000
     22      -6.0073      2.00000
     23      -5.6904      2.00000
     24      -5.4939      2.00000
     25      -5.4329      2.00000
     26      -5.4241      2.00000
     27      -5.3808      2.00000
     28      -5.3018      2.00000
     29      -5.2736      2.00000
     30      -5.2151      2.00000
     31      -5.2069      2.00000
     32      -5.1280      2.00000
     33      -5.1276      2.00000
     34      -5.0922      2.00000
     35      -5.0560      2.00000
     36      -5.0308      2.00000
     37      -4.9996      2.00000
     38      -4.9508      2.00000
     39      -4.9285      2.00000
     40      -4.8833      2.00000
     41      -4.7889      2.00000
     42      -4.7170      2.00000
     43      -4.5584      2.00000
     44      -4.5291      2.00000
     45      -4.4949      2.00000
     46      -4.4534      2.00000
     47      -4.4263      2.00000
     48      -4.3656      2.00000
     49      -4.3517      2.00000
     50      -4.2712      2.00000
     51      -4.2351      2.00000
     52      -4.1758      2.00000
     53      -4.1598      2.00000
     54      -4.0839      2.00000
     55      -4.0580      2.00000
     56      -4.0422      2.00000
     57      -4.0321      2.00000
     58      -4.0012      2.00000
     59      -4.0010      2.00000
     60      -3.9460      2.00000
     61      -3.9300      2.00000
     62      -3.9146      2.00000
     63      -3.8826      2.00000
     64      -3.8446      2.00000
     65      -3.8272      2.00000
     66      -3.7850      2.00000
     67      -3.7460      2.00000
     68      -3.6610      2.00000
     69      -2.9984      2.00000
     70      -2.5496      1.99844
     71      -2.4381      1.90746
     72      -2.3652      1.16198
     73      -1.6402      0.00000
     74      -1.5132      0.00000
     75      -0.9012      0.00000
     76      -0.2311      0.00000
     77      -0.1893      0.00000
     78       0.1985      0.00000
     79       1.1150      0.00000
     80       1.1249      0.00000
     81       1.9380      0.00000
     82       2.5001      0.00000
     83       2.6619      0.00000
     84       2.6840      0.00000
     85       2.8722      0.00000
     86       2.9941      0.00000
     87       3.2009      0.00000
     88       3.2205      0.00000
     89       3.3148      0.00000
     90       3.4496      0.00000
     91       4.0213      0.00000
     92       4.1334      0.00000
     93       4.2749      0.00000
     94       4.6609      0.00000
     95       4.7324      0.00000
     96       5.2385      0.00000

 k-point     3 :       0.4000    0.0000    0.0000
  band No.  band energies     occupation 
      1     -26.6086      2.00000
      2     -12.2058      2.00000
      3      -9.9615      2.00000
      4      -9.4510      2.00000
      5      -9.3581      2.00000
      6      -9.3467      2.00000
      7      -8.3092      2.00000
      8      -7.7461      2.00000
      9      -7.0503      2.00000
     10      -6.8358      2.00000
     11      -6.7559      2.00000
     12      -6.7191      2.00000
     13      -6.5285      2.00000
     14      -6.4680      2.00000
     15      -6.3751      2.00000
     16      -6.2242      2.00000
     17      -6.1994      2.00000
     18      -6.1428      2.00000
     19      -6.1418      2.00000
     20      -5.9815      2.00000
     21      -5.8871      2.00000
     22      -5.8604      2.00000
     23      -5.7839      2.00000
     24      -5.6849      2.00000
     25      -5.6375      2.00000
     26      -5.6075      2.00000
     27      -5.5502      2.00000
     28      -5.5025      2.00000
     29      -5.3858      2.00000
     30      -5.3787      2.00000
     31      -5.3379      2.00000
     32      -5.2319      2.00000
     33      -5.1924      2.00000
     34      -5.1352      2.00000
     35      -5.0812      2.00000
     36      -5.0284      2.00000
     37      -4.9939      2.00000
     38      -4.9809      2.00000
     39      -4.9339      2.00000
     40      -4.9054      2.00000
     41      -4.8882      2.00000
     42      -4.8379      2.00000
     43      -4.8357      2.00000
     44      -4.8152      2.00000
     45      -4.7961      2.00000
     46      -4.7518      2.00000
     47      -4.6221      2.00000
     48      -4.5821      2.00000
     49      -4.5570      2.00000
     50      -4.5293      2.00000
     51      -4.4679      2.00000
     52      -4.4320      2.00000
     53      -4.3644      2.00000
     54      -4.3279      2.00000
     55      -4.3275      2.00000
     56      -4.3068      2.00000
     57      -4.1928      2.00000
     58      -4.1774      2.00000
     59      -4.1611      2.00000
     60      -4.1397      2.00000
     61      -4.0997      2.00000
     62      -4.0588      2.00000
     63      -3.9490      2.00000
     64      -3.9441      2.00000
     65      -3.9035      2.00000
     66      -3.8734      2.00000
     67      -3.8503      2.00000
     68      -3.7817      2.00000
     69      -3.4975      2.00000
     70      -2.4295      1.87495
     71      -2.3755      1.33996
     72      -2.2430      0.02961
     73      -1.5617      0.00000
     74      -1.3973      0.00000
     75      -1.0544      0.00000
     76      -0.0340      0.00000
     77       0.0508      0.00000
     78       0.6648      0.00000
     79       1.3527      0.00000
     80       1.9237      0.00000
     81       2.4826      0.00000
     82       2.8812      0.00000
     83       3.4326      0.00000
     84       3.6202      0.00000
     85       3.6723      0.00000
     86       3.7938      0.00000
     87       4.1147      0.00000
     88       4.1390      0.00000
     89       4.2631      0.00000
     90       4.6047      0.00000
     91       4.9223      0.00000
     92       4.9679      0.00000
     93       5.0834      0.00000
     94       5.1994      0.00000
     95       5.3245      0.00000
     96       5.4990      0.00000

 k-point     4 :       0.4000    0.2000    0.0000
  band No.  band energies     occupation 
      1     -26.6087      2.00000
      2     -12.2149      2.00000
      3     -10.1313      2.00000
      4      -9.4933      2.00000
      5      -9.3996      2.00000
      6      -9.3653      2.00000
      7      -7.9699      2.00000
      8      -7.5821      2.00000
      9      -7.5082      2.00000
     10      -6.8949      2.00000
     11      -6.8101      2.00000
     12      -6.7305      2.00000
     13      -6.6082      2.00000
     14      -6.4530      2.00000
     15      -6.3347      2.00000
     16      -6.3000      2.00000
     17      -6.2635      2.00000
     18      -6.1997      2.00000
     19      -6.1581      2.00000
     20      -6.0604      2.00000
     21      -5.9280      2.00000
     22      -5.9065      2.00000
     23      -5.7271      2.00000
     24      -5.6210      2.00000
     25      -5.5957      2.00000
     26      -5.5443      2.00000
     27      -5.5127      2.00000
     28      -5.4389      2.00000
     29      -5.3682      2.00000
     30      -5.3423      2.00000
     31      -5.2868      2.00000
     32      -5.2483      2.00000
     33      -5.1676      2.00000
     34      -5.1394      2.00000
     35      -5.1177      2.00000
     36      -5.0861      2.00000
     37      -5.0293      2.00000
     38      -4.9544      2.00000
     39      -4.9221      2.00000
     40      -4.8948      2.00000
     41      -4.8417      2.00000
     42      -4.7845      2.00000
     43      -4.7616      2.00000
     44      -4.7042      2.00000
     45      -4.6702      2.00000
     46      -4.6514      2.00000
     47      -4.6138      2.00000
     48      -4.5659      2.00000
     49      -4.5505      2.00000
     50      -4.5429      2.00000
     51      -4.4220      2.00000
     52      -4.3755      2.00000
     53      -4.3442      2.00000
     54      -4.3235      2.00000
     55      -4.2429      2.00000
     56      -4.2177      2.00000
     57      -4.1525      2.00000
     58      -4.1129      2.00000
     59      -4.0724      2.00000
     60      -4.0368      2.00000
     61      -3.9995      2.00000
     62      -3.9751      2.00000
     63      -3.9402      2.00000
     64      -3.9284      2.00000
     65      -3.9007      2.00000
     66      -3.8619      2.00000
     67      -3.7917      2.00000
     68      -3.6061      2.00000
     69      -3.5762      2.00000
     70      -3.0499      2.00000
     71      -3.0143      2.00000
     72      -2.1363      0.00058
     73      -1.0764      0.00000
     74      -1.0170      0.00000
     75      -0.5372      0.00000
     76      -0.1642      0.00000
     77       0.4076      0.00000
     78       0.5565      0.00000
     79       0.8178      0.00000
     80       1.3320      0.00000
     81       2.4984      0.00000
     82       2.7194      0.00000
     83       2.9740      0.00000
     84       3.1316      0.00000
     85       3.4812      0.00000
     86       3.6192      0.00000
     87       3.8204      0.00000
     88       3.9226      0.00000
     89       4.3450      0.00000
     90       4.5581      0.00000
     91       4.6627      0.00000
     92       4.7820      0.00000
     93       4.8093      0.00000
     94       5.2594      0.00000
     95       5.3267      0.00000
     96       5.8171      0.00000

 k-point     5 :      -0.4000    0.2000    0.0000
  band No.  band energies     occupation 
      1     -26.6085      2.00000
      2     -12.1927      2.00000
      3      -9.7850      2.00000
      4      -9.4369      2.00000
      5      -9.3817      2.00000
      6      -8.8125      2.00000
      7      -8.6498      2.00000
      8      -7.6467      2.00000
      9      -7.2307      2.00000
     10      -7.1663      2.00000
     11      -6.6593      2.00000
     12      -6.4500      2.00000
     13      -6.3926      2.00000
     14      -6.3413      2.00000
     15      -6.2711      2.00000
     16      -6.1244      2.00000
     17      -6.1091      2.00000
     18      -6.0329      2.00000
     19      -6.0188      2.00000
     20      -5.9440      2.00000
     21      -5.9181      2.00000
     22      -5.8837      2.00000
     23      -5.8061      2.00000
     24      -5.7616      2.00000
     25      -5.7492      2.00000
     26      -5.6983      2.00000
     27      -5.6490      2.00000
     28      -5.5570      2.00000
     29      -5.4409      2.00000
     30      -5.4121      2.00000
     31      -5.3858      2.00000
     32      -5.3323      2.00000
     33      -5.3035      2.00000
     34      -5.2609      2.00000
     35      -5.2183      2.00000
     36      -5.1755      2.00000
     37      -5.1168      2.00000
     38      -5.0607      2.00000
     39      -5.0257      2.00000
     40      -4.9939      2.00000
     41      -4.9325      2.00000
     42      -4.9247      2.00000
     43      -4.9043      2.00000
     44      -4.8333      2.00000
     45      -4.7803      2.00000
     46      -4.6759      2.00000
     47      -4.5941      2.00000
     48      -4.5665      2.00000
     49      -4.5384      2.00000
     50      -4.4805      2.00000
     51      -4.4433      2.00000
     52      -4.4361      2.00000
     53      -4.4061      2.00000
     54      -4.3449      2.00000
     55      -4.2880      2.00000
     56      -4.2684      2.00000
     57      -4.2056      2.00000
     58      -4.1771      2.00000
     59      -4.1178      2.00000
     60      -4.1062      2.00000
     61      -4.0935      2.00000
     62      -4.0218      2.00000
     63      -4.0037      2.00000
     64      -3.9771      2.00000
     65      -3.9435      2.00000
     66      -3.9227      2.00000
     67      -3.8832      2.00000
     68      -3.8627      2.00000
     69      -3.5803      2.00000
     70      -3.4296      2.00000
     71      -2.8701      2.00000
     72      -2.0734      0.00006
     73      -1.3436      0.00000
     74      -0.7185      0.00000
     75      -0.2203      0.00000
     76      -0.0761      0.00000
     77       0.3879      0.00000
     78       1.2805      0.00000
     79       1.3403      0.00000
     80       1.9461      0.00000
     81       2.6315      0.00000
     82       2.7214      0.00000
     83       3.2056      0.00000
     84       3.6541      0.00000
     85       3.7560      0.00000
     86       4.1962      0.00000
     87       4.3264      0.00000
     88       4.3704      0.00000
     89       4.5457      0.00000
     90       4.6979      0.00000
     91       4.7290      0.00000
     92       4.9710      0.00000
     93       5.0282      0.00000
     94       5.0553      0.00000
     95       5.1153      0.00000
     96       5.2112      0.00000


--------------------------------------------------------------------------------------------------------


 soft charge-density along one line, spin component           1
         0         1         2         3         4         5         6         7         8         9
 total charge-density along one line
 
 pseudopotential strength for first ion, spin component:           1
 -9.911  -0.001  -0.004  -0.005  -0.000   0.575   0.001   0.003
 -0.001  -9.873  -0.001   0.003  -0.003   0.001   0.544   0.001
 -0.004  -0.001  -9.865  -0.002  -0.002   0.003   0.001   0.537
 -0.005   0.003  -0.002  -9.870  -0.001   0.004  -0.002   0.002
 -0.000  -0.003  -0.002  -0.001  -9.911   0.000   0.002   0.002
  0.575   0.001   0.003   0.004   0.000   6.584  -0.001  -0.002
  0.001   0.544   0.001  -0.002   0.002  -0.001   6.606  -0.001
  0.003   0.001   0.537   0.002   0.002  -0.002  -0.001   6.612
  0.004  -0.002   0.002   0.542   0.001  -0.003   0.002  -0.001
  0.000   0.002   0.002   0.001   0.575  -0.000  -0.002  -0.001
 -0.001   0.000  -0.008   0.001  -0.000   0.000  -0.000   0.003
 -0.001   0.001  -0.014   0.001  -0.001   0.001  -0.000   0.005
  0.001  -0.010  -0.000   0.000  -0.000  -0.001   0.010   0.000
  0.000   0.001  -0.009   0.001   0.000  -0.000  -0.000   0.009
  0.001   0.000  -0.001  -0.009   0.001  -0.000  -0.000   0.000
  0.001  -0.011  -0.000   0.000  -0.000  -0.001   0.012   0.000
  0.000   0.001  -0.010   0.001   0.000  -0.000  -0.000   0.011
  0.001   0.000  -0.001  -0.011   0.001  -0.000  -0.000   0.000
 total augmentation occupancy for first ion, spin component:           1
  1.908  -0.000  -0.002  -0.005  -0.001  -0.016   0.000   0.000   0.005   0.000  -0.000  -0.000  -0.001   0.001   0.006   0.001
 -0.000   1.924  -0.002   0.001  -0.005  -0.000  -0.032   0.000  -0.000   0.005  -0.004   0.000   0.007   0.000   0.002  -0.009
 -0.002  -0.002   1.926  -0.003  -0.001   0.000   0.000  -0.028   0.001   0.000  -0.004   0.013  -0.001   0.053  -0.003  -0.000
 -0.005   0.001  -0.003   1.925  -0.000   0.005  -0.000   0.001  -0.032  -0.000  -0.008   0.000   0.002   0.000   0.009  -0.000
 -0.001  -0.005  -0.001  -0.000   1.909   0.000   0.005   0.000   0.000  -0.016  -0.000  -0.000   0.008   0.001  -0.001  -0.001
 -0.016  -0.000   0.000   0.005   0.000   0.014  -0.000  -0.000   0.000  -0.000  -0.000   0.000   0.000  -0.000   0.003  -0.000
  0.000  -0.032   0.000  -0.000   0.005  -0.000   0.010  -0.000  -0.000   0.000   0.001   0.000   0.017  -0.000  -0.000  -0.001
  0.000   0.000  -0.028   0.001   0.000  -0.000  -0.000   0.013  -0.000  -0.000  -0.043   0.002   0.000   0.022   0.001  -0.000
  0.005  -0.000   0.001  -0.032   0.000   0.000  -0.000  -0.000   0.010  -0.000   0.001   0.000  -0.000  -0.000   0.017   0.000
  0.000   0.005   0.000  -0.000  -0.016  -0.000   0.000  -0.000  -0.000   0.014  -0.000   0.000   0.002  -0.000   0.000  -0.000
 -0.000  -0.004  -0.004  -0.008  -0.000  -0.000   0.001  -0.043   0.001  -0.000   1.699  -0.135  -0.002   0.131  -0.003   0.000
 -0.000   0.000   0.013   0.000  -0.000   0.000   0.000   0.002   0.000   0.000  -0.135   0.016  -0.000  -0.022  -0.000  -0.000
 -0.001   0.007  -0.001   0.002   0.008   0.000   0.017   0.000  -0.000   0.002  -0.002  -0.000   0.209   0.001   0.000  -0.013
  0.001   0.000   0.053   0.000   0.001  -0.000  -0.000   0.022  -0.000  -0.000   0.131  -0.022   0.001   0.127   0.001  -0.000
  0.006   0.002  -0.003   0.009  -0.001   0.003  -0.000   0.001   0.017   0.000  -0.003  -0.000   0.000   0.001   0.209   0.000
  0.001  -0.009  -0.000  -0.000  -0.001  -0.000  -0.001  -0.000   0.000  -0.000   0.000  -0.000  -0.013  -0.000   0.000   0.001
  0.000   0.000  -0.014   0.001   0.000   0.000  -0.000  -0.001  -0.000   0.000  -0.019   0.002  -0.000  -0.009  -0.000   0.000
 -0.000  -0.000  -0.000  -0.009   0.001  -0.000   0.000  -0.000  -0.001  -0.000   0.000  -0.000   0.000  -0.000  -0.013  -0.000


------------------------ aborting loop because EDIFF is reached ----------------------------------------


    CHARGE:  cpu time      0.0583: real time      0.0587
    FORLOC:  cpu time      0.0021: real time      0.0021
    FORNL :  cpu time      0.1528: real time      0.1542
    STRESS:  cpu time      1.5933: real time      1.6046
    FORCOR:  cpu time      0.0182: real time      0.0183
    FORHAR:  cpu time      0.0047: real time      0.0047
    MIXING:  cpu time      0.0008: real time      0.0008
    OFIELD:  cpu time      0.0000: real time      0.0000

  FORCE on cell =-STRESS in cart. coord.  units (eV):
  Direction    XX          YY          ZZ          XY          YZ          ZX
  --------------------------------------------------------------------------------------
  Alpha Z   154.47939   154.47939   154.47939
  Ewald  141424.26983141424.26983************    -0.00000    -0.00000    -0.00000
  Hartree145598.29162145598.29162************     0.00000    -0.00000    -0.00000
  E(xc)    -814.53601  -814.53588  -814.93048    -0.00011     0.00000     0.00000
  Local  ************************291259.38258     0.00208    -0.00000    -0.00000
  n-local  -272.26615  -283.95123  -292.23281    -6.56320    -0.04424    -0.02886
  augment  1142.13262  1142.13473  1143.26028    -0.00183     0.00001     0.00001
  Kinetic  1267.97476  1270.74831  1248.67590     2.09261    -0.96823     1.22270
  Fock        0.00000     0.00000     0.00000     0.00000     0.00000     0.00000
  -------------------------------------------------------------------------------------
  Total      -1.54480    -1.54480    -1.22590     0.00000    -0.00000     0.00000
  in kB      -3.19968    -3.19968    -2.53916     0.00000    -0.00000     0.00000
  external pressure =       -2.98 kB  Pullay stress =        0.00 kB


 VOLUME and BASIS-vectors are now :
 -----------------------------------------------------------------------------
  energy-cutoff  :      600.00
  volume of cell :      773.53
      direct lattice vectors                 reciprocal lattice vectors
     5.112382028  0.000000000  0.000000000     0.195603536 -0.112931754  0.000000000
     2.556191014  4.427452710  0.000000000     0.000000000  0.225863508  0.000000000
     0.000000000  0.000000000 34.174242446     0.000000000  0.000000000  0.029261804

  length of vectors
     5.112382028  5.112382028 34.174242446     0.225863508  0.225863508  0.029261804


 FORCES acting on ions
    electron-ion (+dipol)            ewald-force                    non-local-force                 convergence-correction
 -----------------------------------------------------------------------------------------------
   -.361E+00 -.208E+00 0.341E+04   0.135E+00 0.777E-01 -.341E+04   0.207E+00 0.120E+00 -.203E+01   0.483E-03 0.279E-03 0.176E-03
   0.361E+00 -.208E+00 0.341E+04   -.135E+00 0.777E-01 -.341E+04   -.207E+00 0.120E+00 -.203E+01   -.483E-03 0.279E-03 0.176E-03
   0.264E-05 0.417E+00 0.341E+04   0.311E-11 -.155E+00 -.341E+04   0.346E-17 -.240E+00 -.203E+01   -.159E-09 -.558E-03 0.176E-03
   0.256E-05 0.148E-05 0.341E+04   0.315E-11 0.163E-11 -.341E+04   0.111E-16 -.126E-16 -.259E+01   -.297E-10 -.171E-10 -.314E-03
   -.243E-05 -.349E+01 0.322E+03   -.453E-11 0.300E+01 -.322E+03   0.885E-17 0.392E+00 -.427E+00   0.474E-09 0.324E-03 0.555E-03
   -.228E-05 -.132E-05 0.318E+03   -.477E-11 -.280E-11 -.318E+03   -.512E-17 0.266E-17 0.568E+00   0.543E-10 0.314E-10 0.515E-03
   0.302E+01 0.175E+01 0.322E+03   -.260E+01 -.150E+01 -.322E+03   -.340E+00 -.196E+00 -.427E+00   -.280E-03 -.162E-03 0.555E-03
   -.302E+01 0.175E+01 0.322E+03   0.260E+01 -.150E+01 -.322E+03   0.340E+00 -.196E+00 -.427E+00   0.280E-03 -.162E-03 0.555E-03
   0.585E-06 0.338E-06 -.265E+04   0.145E-11 0.111E-11 0.265E+04   0.651E-17 0.212E-17 0.168E+01   -.711E-10 -.410E-10 -.132E-03
   0.256E-06 0.211E-01 -.281E+04   0.149E-11 0.111E-11 0.280E+04   0.475E-17 0.246E-02 0.348E+01   0.242E-09 0.526E-03 0.206E-02
   0.182E-01 -.105E-01 -.281E+04   0.148E-11 0.110E-11 0.280E+04   0.213E-02 -.123E-02 0.348E+01   0.456E-03 -.263E-03 0.206E-02
   -.182E-01 -.105E-01 -.281E+04   0.152E-11 0.111E-11 0.280E+04   -.213E-02 -.123E-02 0.348E+01   -.456E-03 -.263E-03 0.206E-02
   -.906E-05 -.523E-05 -.245E+04   0.503E-14 -.979E-15 0.251E+04   0.380E-19 0.420E-19 -.600E+02   -.146E-10 -.844E-11 0.475E-03
   0.200E-05 0.115E-05 -.139E+04   -.905E-14 -.768E-14 0.137E+04   0.249E-18 0.367E-19 0.182E+02   -.181E-10 -.104E-10 -.559E-03
 -----------------------------------------------------------------------------------------------
   -.463E-05 -.267E-05 0.391E+02   -.113E-12 0.144E-13 -.227E-12   0.836E-16 -.554E-16 -.391E+02   -.492E-10 -.281E-10 0.834E-02
 
 
 POSITION                                       TOTAL-FORCE (eV/Angst)
 -----------------------------------------------------------------------------------
      1.27810      0.73791     15.00000        -0.018236     -0.010528      0.042788
      3.83429      0.73791     15.00000         0.018236     -0.010528      0.042788
      2.55619      2.95164     15.00000        -0.000000      0.021057      0.042788
      5.11238      2.95164     15.00000        -0.000000      0.000000      0.125611
      5.11238      1.47582     17.08712        -0.000000     -0.097023      0.025326
      2.55619      1.47582     17.08712        -0.000000      0.000000      0.106913
      6.39048      3.68954     17.08712         0.084025      0.048512      0.025326
      3.83429      3.68954     17.08712        -0.084025      0.048512      0.025326
      0.00000      0.00000     19.17424        -0.000000     -0.000000      0.093485
      2.55619      0.00000     19.17424        -0.000000      0.024044     -0.198823
      1.27810      2.21373     19.17424         0.020823     -0.012022     -0.198823
      3.83429      2.21373     19.17424        -0.020823     -0.012022     -0.198823
      0.00000      0.00000     22.16847        -0.000000      0.000000      0.139571
      0.00000      0.00000     21.00988        -0.000000      0.000000     -0.073454
 -----------------------------------------------------------------------------------
    total drift:                               -0.000005     -0.000003      0.003150


--------------------------------------------------------------------------------------------------------



  FREE ENERGIE OF THE ION-ELECTRON SYSTEM (eV)
  ---------------------------------------------------
  free  energy   TOTEN  =       -56.38976548 eV

  energy  without entropy=      -56.36560204  energy(sigma->0) =      -56.37768376
 
 d Force = 0.1731147E-03[ 0.150E-03, 0.196E-03]  d Energy = 0.1742023E-03-0.109E-05
 d Force = 0.6680233E+01[ 0.668E+01, 0.668E+01]  d Ewald  = 0.6680233E+01 0.652E-07


--------------------------------------------------------------------------------------------------------


    POTLOK:  cpu time      0.0211: real time      0.0212


--------------------------------------------------------------------------------------------------------




--------------------------------------------------------------------------------------------------------


    WAVPRE:  cpu time      0.0060: real time      0.0271
    FEWALD:  cpu time      0.0004: real time      0.0004
    ORTHCH:  cpu time      0.1503: real time      0.1521
     LOOP+:  cpu time     12.0009: real time     12.1413


--------------------------------------- Iteration      6(   1)  ---------------------------------------


    POTLOK:  cpu time      0.0201: real time      0.0207
    SETDIJ:  cpu time      0.0015: real time      0.0015
     EDDAV:  cpu time      1.4889: real time      1.5014
       DOS:  cpu time      0.0003: real time      0.0003
    CHARGE:  cpu time      0.0581: real time      0.0585
    MIXING:  cpu time      0.0008: real time      0.0008
    --------------------------------------------
      LOOP:  cpu time      1.5697: real time      1.5834

 eigenvalue-minimisations  :   960
 total energy-change (2. order) :-0.1371061E-03  (-0.7658066E-02)
 number of electron     142.0000062 magnetization 
 augmentation part       84.9198009 magnetization 

 Broyden mixing:
  rms(total) = 0.78527E-02    rms(broyden)= 0.78437E-02
  rms(prec ) = 0.79093E-02
  weight for this iteration     100.00

 Free energy of the ion-electron system (eV)
  ---------------------------------------------------
  alpha Z        PSCENC =       154.47939101
  Ewald energy   TEWEN  =    132684.91375684
  -Hartree energ DENC   =   -148633.77866295
  -exchange      EXHF   =         0.00000000
  -V(xc)+E(xc)   XCENC  =       574.86652988
  PAW double counting   =     16512.19970878   -17807.12867122
  entropy T*S    EENTRO =        -0.02421716
  eigenvalues    EBANDS =      -813.15952495
  atomic energy  EATOM  =     17271.24178720
  Solvation  Ecorr_sol  =         0.00000000
  ---------------------------------------------------
  free energy    TOTEN  =       -56.38990256 eV

  energy without entropy =      -56.36568540  energy(sigma->0) =      -56.37779398


--------------------------------------------------------------------------------------------------------




--------------------------------------- Iteration      6(   2)  ---------------------------------------


    POTLOK:  cpu time      0.0207: real time      0.0211
    SETDIJ:  cpu time      0.0016: real time      0.0016
     EDDAV:  cpu time      1.5558: real time      1.5694
       DOS:  cpu time      0.0003: real time      0.0003
    CHARGE:  cpu time      0.0553: real time      0.0557
    MIXING:  cpu time      0.0006: real time      0.0006
    --------------------------------------------
      LOOP:  cpu time      1.6343: real time      1.6487

 eigenvalue-minimisations  :  1184
 total energy-change (2. order) :-0.7774092E-04  (-0.1118163E-03)
 number of electron     142.0000062 magnetization 
 augmentation part       84.9179657 magnetization 

 Broyden mixing:
  rms(total) = 0.46681E-02    rms(broyden)= 0.46671E-02
  rms(prec ) = 0.47556E-02
  weight for this iteration     100.00

 eigenvalues of (default mixing * dielectric matrix)
  average eigenvalue GAMMA=   0.9602
  0.9602

 Free energy of the ion-electron system (eV)
  ---------------------------------------------------
  alpha Z        PSCENC =       154.47939101
  Ewald energy   TEWEN  =    132684.91375684
  -Hartree energ DENC   =   -148633.86298720
  -exchange      EXHF   =         0.00000000
  -V(xc)+E(xc)   XCENC  =       574.86651963
  PAW double counting   =     16510.83549415   -17805.77367428
  entropy T*S    EENTRO =        -0.02420876
  eigenvalues    EBANDS =      -813.06605890
  atomic energy  EATOM  =     17271.24178720
  Solvation  Ecorr_sol  =         0.00000000
  ---------------------------------------------------
  free energy    TOTEN  =       -56.38998030 eV

  energy without entropy =      -56.36577154  energy(sigma->0) =      -56.37787592


--------------------------------------------------------------------------------------------------------




--------------------------------------- Iteration      6(   3)  ---------------------------------------


    POTLOK:  cpu time      0.0193: real time      0.0196
    SETDIJ:  cpu time      0.0014: real time      0.0014
     EDDAV:  cpu time      1.3129: real time      1.3242
       DOS:  cpu time      0.0003: real time      0.0003
    CHARGE:  cpu time      0.0542: real time      0.0546
    MIXING:  cpu time      0.0008: real time      0.0008
    --------------------------------------------
      LOOP:  cpu time      1.3889: real time      1.4008

 eigenvalue-minimisations  :  1024
 total energy-change (2. order) :-0.1042870E-04  (-0.2115568E-04)
 number of electron     142.0000062 magnetization 
 augmentation part       84.9200882 magnetization 

 Broyden mixing:
  rms(total) = 0.48909E-02    rms(broyden)= 0.48906E-02
  rms(prec ) = 0.50111E-02
  weight for this iteration     100.00

 eigenvalues of (default mixing * dielectric matrix)
  average eigenvalue GAMMA=   0.9687
  1.5388  0.3986

 Free energy of the ion-electron system (eV)
  ---------------------------------------------------
  alpha Z        PSCENC =       154.47939101
  Ewald energy   TEWEN  =    132684.91375684
  -Hartree energ DENC   =   -148633.70217337
  -exchange      EXHF   =         0.00000000
  -V(xc)+E(xc)   XCENC  =       574.86492855
  PAW double counting   =     16510.36302650   -17805.27481985
  entropy T*S    EENTRO =        -0.02420781
  eigenvalues    EBANDS =      -813.25167980
  atomic energy  EATOM  =     17271.24178720
  Solvation  Ecorr_sol  =         0.00000000
  ---------------------------------------------------
  free energy    TOTEN  =       -56.38999072 eV

  energy without entropy =      -56.36578291  energy(sigma->0) =      -56.37788682


--------------------------------------------------------------------------------------------------------




--------------------------------------- Iteration      6(   4)  ---------------------------------------


    POTLOK:  cpu time      0.0191: real time      0.0195
    SETDIJ:  cpu time      0.0015: real time      0.0015
     EDDAV:  cpu time      1.4069: real time      1.4191
       DOS:  cpu time      0.0003: real time      0.0003
    CHARGE:  cpu time      0.0574: real time      0.0577
    MIXING:  cpu time      0.0008: real time      0.0009
    --------------------------------------------
      LOOP:  cpu time      1.4860: real time      1.4990

 eigenvalue-minimisations  :  1088
 total energy-change (2. order) : 0.2012347E-04  (-0.9024500E-05)
 number of electron     142.0000062 magnetization 
 augmentation part       84.9196635 magnetization 

 Broyden mixing:
  rms(total) = 0.15901E-02    rms(broyden)= 0.15900E-02
  rms(prec ) = 0.16131E-02
  weight for this iteration     100.00

 eigenvalues of (default mixing * dielectric matrix)
  average eigenvalue GAMMA=   1.1594
  2.2166  0.8844  0.3772

 Free energy of the ion-electron system (eV)
  ---------------------------------------------------
  alpha Z        PSCENC =       154.47939101
  Ewald energy   TEWEN  =    132684.91375684
  -Hartree energ DENC   =   -148633.68893175
  -exchange      EXHF   =         0.00000000
  -V(xc)+E(xc)   XCENC  =       574.86544954
  PAW double counting   =     16510.09325893   -17805.00616417
  entropy T*S    EENTRO =        -0.02420895
  eigenvalues    EBANDS =      -813.26430926
  atomic energy  EATOM  =     17271.24178720
  Solvation  Ecorr_sol  =         0.00000000
  ---------------------------------------------------
  free energy    TOTEN  =       -56.38997060 eV

  energy without entropy =      -56.36576165  energy(sigma->0) =      -56.37786612


--------------------------------------------------------------------------------------------------------




--------------------------------------- Iteration      6(   5)  ---------------------------------------


    POTLOK:  cpu time      0.0207: real time      0.0212
    SETDIJ:  cpu time      0.0013: real time      0.0013
     EDDAV:  cpu time      1.7705: real time      1.7854
       DOS:  cpu time      0.0003: real time      0.0003
    CHARGE:  cpu time      0.0579: real time      0.0583
    MIXING:  cpu time      0.0010: real time      0.0010
    --------------------------------------------
      LOOP:  cpu time      1.8517: real time      1.8675

 eigenvalue-minimisations  :  1312
 total energy-change (2. order) :-0.4595975E-05  (-0.1957862E-05)
 number of electron     142.0000062 magnetization 
 augmentation part       84.9184360 magnetization 

 Broyden mixing:
  rms(total) = 0.82405E-03    rms(broyden)= 0.82398E-03
  rms(prec ) = 0.84902E-03
  weight for this iteration     100.00

 eigenvalues of (default mixing * dielectric matrix)
  average eigenvalue GAMMA=   1.1007
  2.4489  1.0212  0.5589  0.3740

 Free energy of the ion-electron system (eV)
  ---------------------------------------------------
  alpha Z        PSCENC =       154.47939101
  Ewald energy   TEWEN  =    132684.91375684
  -Hartree energ DENC   =   -148633.72730964
  -exchange      EXHF   =         0.00000000
  -V(xc)+E(xc)   XCENC  =       574.86671375
  PAW double counting   =     16509.90908321   -17804.83134297
  entropy T*S    EENTRO =        -0.02421242
  eigenvalues    EBANDS =      -813.21784217
  atomic energy  EATOM  =     17271.24178720
  Solvation  Ecorr_sol  =         0.00000000
  ---------------------------------------------------
  free energy    TOTEN  =       -56.38997520 eV

  energy without entropy =      -56.36576277  energy(sigma->0) =      -56.37786899


--------------------------------------------------------------------------------------------------------




--------------------------------------- Iteration      6(   6)  ---------------------------------------


    POTLOK:  cpu time      0.0203: real time      0.0207
    SETDIJ:  cpu time      0.0016: real time      0.0016
     EDDAV:  cpu time      1.4775: real time      1.4901
       DOS:  cpu time      0.0003: real time      0.0003
    --------------------------------------------
      LOOP:  cpu time      1.4997: real time      1.5126

 eigenvalue-minimisations  :  1088
 total energy-change (2. order) :-0.2497982E-06  (-0.7388193E-06)
 number of electron     142.0000062 magnetization 
 augmentation part       84.9184360 magnetization 

 Free energy of the ion-electron system (eV)
  ---------------------------------------------------
  alpha Z        PSCENC =       154.47939101
  Ewald energy   TEWEN  =    132684.91375684
  -Hartree energ DENC   =   -148633.69686623
  -exchange      EXHF   =         0.00000000
  -V(xc)+E(xc)   XCENC  =       574.86594618
  PAW double counting   =     16509.82622644   -17804.74098643
  entropy T*S    EENTRO =        -0.02420398
  eigenvalues    EBANDS =      -813.25502650
  atomic energy  EATOM  =     17271.24178720
  Solvation  Ecorr_sol  =         0.00000000
  ---------------------------------------------------
  free energy    TOTEN  =       -56.38997545 eV

  energy without entropy =      -56.36577147  energy(sigma->0) =      -56.37787346


--------------------------------------------------------------------------------------------------------




 average (electrostatic) potential at core
  the test charge radii are     0.9430  0.7215  0.6991
  (the norm of the test charge is              1.0000)
       1 -73.3194       2 -73.3194       3 -73.3194       4 -73.3935       5 -73.5483
       6 -73.5876       7 -73.5483       8 -73.5483       9 -74.3866      10 -73.2795
      11 -73.2795      12 -73.2795      13 -80.8344      14 -59.9378
 
 
 
 E-fermi :  -2.3565     XC(G=0):  -3.1711     alpha+bet : -2.6859

 Fermi energy:        -2.3565454436

 k-point     1 :       0.0000    0.0000    0.0000
  band No.  band energies     occupation 
      1     -26.5992      2.00000
      2     -12.2857      2.00000
      3     -10.8842      2.00000
      4      -9.7623      2.00000
      5      -9.3336      2.00000
      6      -9.3336      2.00000
      7      -8.5963      2.00000
      8      -7.4993      2.00000
      9      -7.0425      2.00000
     10      -7.0425      2.00000
     11      -6.9513      2.00000
     12      -6.9025      2.00000
     13      -6.9025      2.00000
     14      -6.7435      2.00000
     15      -6.5621      2.00000
     16      -6.5621      2.00000
     17      -6.4498      2.00000
     18      -6.4465      2.00000
     19      -6.4465      2.00000
     20      -6.3477      2.00000
     21      -6.0540      2.00000
     22      -6.0540      2.00000
     23      -5.6933      2.00000
     24      -5.4576      2.00000
     25      -5.4576      2.00000
     26      -5.4153      2.00000
     27      -5.3076      2.00000
     28      -5.2269      2.00000
     29      -5.2269      2.00000
     30      -5.1812      2.00000
     31      -5.1812      2.00000
     32      -5.1571      2.00000
     33      -5.0903      2.00000
     34      -5.0903      2.00000
     35      -5.0035      2.00000
     36      -4.9807      2.00000
     37      -4.9807      2.00000
     38      -4.9051      2.00000
     39      -4.8360      2.00000
     40      -4.8360      2.00000
     41      -4.6995      2.00000
     42      -4.6995      2.00000
     43      -4.4182      2.00000
     44      -4.4182      2.00000
     45      -4.4000      2.00000
     46      -4.4000      2.00000
     47      -4.3997      2.00000
     48      -4.3318      2.00000
     49      -4.1620      2.00000
     50      -4.1620      2.00000
     51      -4.0647      2.00000
     52      -4.0167      2.00000
     53      -4.0167      2.00000
     54      -3.9461      2.00000
     55      -3.9461      2.00000
     56      -3.9396      2.00000
     57      -3.9080      2.00000
     58      -3.9080      2.00000
     59      -3.8773      2.00000
     60      -3.8773      2.00000
     61      -3.8387      2.00000
     62      -3.8213      2.00000
     63      -3.8213      2.00000
     64      -3.6714      2.00000
     65      -3.6714      2.00000
     66      -3.6497      2.00000
     67      -3.5975      2.00000
     68      -3.2245      2.00000
     69      -2.5355      1.99736
     70      -2.5355      1.99736
     71      -2.2839      0.12713
     72      -1.5462      0.00000
     73      -1.5462      0.00000
     74      -1.2980      0.00000
     75      -1.1425      0.00000
     76      -0.8324      0.00000
     77      -0.8323      0.00000
     78      -0.7586      0.00000
     79       0.8384      0.00000
     80       0.8384      0.00000
     81       1.6253      0.00000
     82       2.1879      0.00000
     83       2.2006      0.00000
     84       2.2006      0.00000
     85       2.3487      0.00000
     86       2.5684      0.00000
     87       2.8891      0.00000
     88       3.0466      0.00000
     89       3.1162      0.00000
     90       3.1162      0.00000
     91       3.7002      0.00000
     92       3.7884      0.00000
     93       3.9393      0.00000
     94       4.1784      0.00000
     95       4.1784      0.00000
     96       4.9218      0.00000

 k-point     2 :       0.2000    0.0000    0.0000
  band No.  band energies     occupation 
      1     -26.5989      2.00000
      2     -12.2515      2.00000
      3     -10.6131      2.00000
      4      -9.6664      2.00000
      5      -9.3618      2.00000
      6      -9.3401      2.00000
      7      -8.3911      2.00000
      8      -7.3095      2.00000
      9      -7.2721      2.00000
     10      -6.9791      2.00000
     11      -6.9161      2.00000
     12      -6.8605      2.00000
     13      -6.7818      2.00000
     14      -6.6632      2.00000
     15      -6.4852      2.00000
     16      -6.4614      2.00000
     17      -6.4045      2.00000
     18      -6.3346      2.00000
     19      -6.3166      2.00000
     20      -6.2287      2.00000
     21      -6.0220      2.00000
     22      -6.0052      2.00000
     23      -5.6908      2.00000
     24      -5.4933      2.00000
     25      -5.4323      2.00000
     26      -5.4239      2.00000
     27      -5.3810      2.00000
     28      -5.3021      2.00000
     29      -5.2739      2.00000
     30      -5.2153      2.00000
     31      -5.2068      2.00000
     32      -5.1284      2.00000
     33      -5.1276      2.00000
     34      -5.0921      2.00000
     35      -5.0560      2.00000
     36      -5.0309      2.00000
     37      -5.0000      2.00000
     38      -4.9511      2.00000
     39      -4.9288      2.00000
     40      -4.8836      2.00000
     41      -4.7888      2.00000
     42      -4.7169      2.00000
     43      -4.5586      2.00000
     44      -4.5290      2.00000
     45      -4.4951      2.00000
     46      -4.4537      2.00000
     47      -4.4267      2.00000
     48      -4.3660      2.00000
     49      -4.3520      2.00000
     50      -4.2713      2.00000
     51      -4.2352      2.00000
     52      -4.1761      2.00000
     53      -4.1600      2.00000
     54      -4.0842      2.00000
     55      -4.0584      2.00000
     56      -4.0425      2.00000
     57      -4.0325      2.00000
     58      -4.0016      2.00000
     59      -4.0014      2.00000
     60      -3.9464      2.00000
     61      -3.9303      2.00000
     62      -3.9149      2.00000
     63      -3.8831      2.00000
     64      -3.8449      2.00000
     65      -3.8275      2.00000
     66      -3.7855      2.00000
     67      -3.7465      2.00000
     68      -3.6614      2.00000
     69      -2.9989      2.00000
     70      -2.5509      1.99851
     71      -2.4380      1.90678
     72      -2.3653      1.16121
     73      -1.6405      0.00000
     74      -1.5136      0.00000
     75      -0.9026      0.00000
     76      -0.2337      0.00000
     77      -0.1915      0.00000
     78       0.1980      0.00000
     79       1.1083      0.00000
     80       1.1183      0.00000
     81       1.9386      0.00000
     82       2.5006      0.00000
     83       2.6611      0.00000
     84       2.6825      0.00000
     85       2.8725      0.00000
     86       2.9934      0.00000
     87       3.1995      0.00000
     88       3.2207      0.00000
     89       3.3179      0.00000
     90       3.4510      0.00000
     91       4.0205      0.00000
     92       4.1346      0.00000
     93       4.2740      0.00000
     94       4.6603      0.00000
     95       4.7321      0.00000
     96       5.2380      0.00000

 k-point     3 :       0.4000    0.0000    0.0000
  band No.  band energies     occupation 
      1     -26.5984      2.00000
      2     -12.2026      2.00000
      3      -9.9572      2.00000
      4      -9.4441      2.00000
      5      -9.3505      2.00000
      6      -9.3428      2.00000
      7      -8.3094      2.00000
      8      -7.7453      2.00000
      9      -7.0498      2.00000
     10      -6.8347      2.00000
     11      -6.7559      2.00000
     12      -6.7188      2.00000
     13      -6.5280      2.00000
     14      -6.4679      2.00000
     15      -6.3749      2.00000
     16      -6.2230      2.00000
     17      -6.1975      2.00000
     18      -6.1414      2.00000
     19      -6.1409      2.00000
     20      -5.9805      2.00000
     21      -5.8858      2.00000
     22      -5.8596      2.00000
     23      -5.7832      2.00000
     24      -5.6849      2.00000
     25      -5.6370      2.00000
     26      -5.6076      2.00000
     27      -5.5505      2.00000
     28      -5.5024      2.00000
     29      -5.3852      2.00000
     30      -5.3786      2.00000
     31      -5.3379      2.00000
     32      -5.2321      2.00000
     33      -5.1923      2.00000
     34      -5.1354      2.00000
     35      -5.0815      2.00000
     36      -5.0288      2.00000
     37      -4.9941      2.00000
     38      -4.9812      2.00000
     39      -4.9341      2.00000
     40      -4.9057      2.00000
     41      -4.8886      2.00000
     42      -4.8382      2.00000
     43      -4.8361      2.00000
     44      -4.8156      2.00000
     45      -4.7965      2.00000
     46      -4.7522      2.00000
     47      -4.6219      2.00000
     48      -4.5823      2.00000
     49      -4.5570      2.00000
     50      -4.5296      2.00000
     51      -4.4684      2.00000
     52      -4.4324      2.00000
     53      -4.3648      2.00000
     54      -4.3281      2.00000
     55      -4.3280      2.00000
     56      -4.3072      2.00000
     57      -4.1931      2.00000
     58      -4.1776      2.00000
     59      -4.1615      2.00000
     60      -4.1401      2.00000
     61      -4.1001      2.00000
     62      -4.0590      2.00000
     63      -3.9494      2.00000
     64      -3.9445      2.00000
     65      -3.9039      2.00000
     66      -3.8738      2.00000
     67      -3.8505      2.00000
     68      -3.7823      2.00000
     69      -3.4991      2.00000
     70      -2.4296      1.87480
     71      -2.3757      1.34054
     72      -2.2440      0.03051
     73      -1.5622      0.00000
     74      -1.3979      0.00000
     75      -1.0562      0.00000
     76      -0.0380      0.00000
     77       0.0463      0.00000
     78       0.6617      0.00000
     79       1.3516      0.00000
     80       1.9186      0.00000
     81       2.4790      0.00000
     82       2.8822      0.00000
     83       3.4337      0.00000
     84       3.6196      0.00000
     85       3.6714      0.00000
     86       3.7940      0.00000
     87       4.1168      0.00000
     88       4.1351      0.00000
     89       4.2682      0.00000
     90       4.6051      0.00000
     91       4.9238      0.00000
     92       4.9675      0.00000
     93       5.0850      0.00000
     94       5.1989      0.00000
     95       5.3248      0.00000
     96       5.4982      0.00000

 k-point     4 :       0.4000    0.2000    0.0000
  band No.  band energies     occupation 
      1     -26.5985      2.00000
      2     -12.2117      2.00000
      3     -10.1290      2.00000
      4      -9.4879      2.00000
      5      -9.3923      2.00000
      6      -9.3578      2.00000
      7      -7.9691      2.00000
      8      -7.5822      2.00000
      9      -7.5083      2.00000
     10      -6.8941      2.00000
     11      -6.8097      2.00000
     12      -6.7304      2.00000
     13      -6.6070      2.00000
     14      -6.4528      2.00000
     15      -6.3335      2.00000
     16      -6.2999      2.00000
     17      -6.2630      2.00000
     18      -6.1979      2.00000
     19      -6.1568      2.00000
     20      -6.0599      2.00000
     21      -5.9264      2.00000
     22      -5.9056      2.00000
     23      -5.7272      2.00000
     24      -5.6208      2.00000
     25      -5.5956      2.00000
     26      -5.5438      2.00000
     27      -5.5123      2.00000
     28      -5.4389      2.00000
     29      -5.3680      2.00000
     30      -5.3422      2.00000
     31      -5.2869      2.00000
     32      -5.2482      2.00000
     33      -5.1677      2.00000
     34      -5.1396      2.00000
     35      -5.1181      2.00000
     36      -5.0864      2.00000
     37      -5.0296      2.00000
     38      -4.9547      2.00000
     39      -4.9226      2.00000
     40      -4.8950      2.00000
     41      -4.8420      2.00000
     42      -4.7847      2.00000
     43      -4.7618      2.00000
     44      -4.7047      2.00000
     45      -4.6704      2.00000
     46      -4.6516      2.00000
     47      -4.6142      2.00000
     48      -4.5662      2.00000
     49      -4.5504      2.00000
     50      -4.5432      2.00000
     51      -4.4224      2.00000
     52      -4.3760      2.00000
     53      -4.3445      2.00000
     54      -4.3240      2.00000
     55      -4.2433      2.00000
     56      -4.2181      2.00000
     57      -4.1529      2.00000
     58      -4.1133      2.00000
     59      -4.0727      2.00000
     60      -4.0371      2.00000
     61      -3.9997      2.00000
     62      -3.9755      2.00000
     63      -3.9407      2.00000
     64      -3.9287      2.00000
     65      -3.9011      2.00000
     66      -3.8625      2.00000
     67      -3.7925      2.00000
     68      -3.6063      2.00000
     69      -3.5767      2.00000
     70      -3.0501      2.00000
     71      -3.0147      2.00000
     72      -2.1386      0.00062
     73      -1.0779      0.00000
     74      -1.0190      0.00000
     75      -0.5373      0.00000
     76      -0.1645      0.00000
     77       0.4054      0.00000
     78       0.5540      0.00000
     79       0.8118      0.00000
     80       1.3266      0.00000
     81       2.4985      0.00000
     82       2.7198      0.00000
     83       2.9728      0.00000
     84       3.1320      0.00000
     85       3.4815      0.00000
     86       3.6177      0.00000
     87       3.8187      0.00000
     88       3.9266      0.00000
     89       4.3440      0.00000
     90       4.5578      0.00000
     91       4.6633      0.00000
     92       4.7817      0.00000
     93       4.8093      0.00000
     94       5.2589      0.00000
     95       5.3265      0.00000
     96       5.8183      0.00000

 k-point     5 :      -0.4000    0.2000    0.0000
  band No.  band energies     occupation 
      1     -26.5982      2.00000
      2     -12.1897      2.00000
      3      -9.7775      2.00000
      4      -9.4294      2.00000
      5      -9.3742      2.00000
      6      -8.8127      2.00000
      7      -8.6494      2.00000
      8      -7.6469      2.00000
      9      -7.2310      2.00000
     10      -7.1652      2.00000
     11      -6.6590      2.00000
     12      -6.4489      2.00000
     13      -6.3907      2.00000
     14      -6.3393      2.00000
     15      -6.2712      2.00000
     16      -6.1214      2.00000
     17      -6.1083      2.00000
     18      -6.0321      2.00000
     19      -6.0190      2.00000
     20      -5.9441      2.00000
     21      -5.9168      2.00000
     22      -5.8824      2.00000
     23      -5.8056      2.00000
     24      -5.7620      2.00000
     25      -5.7493      2.00000
     26      -5.6973      2.00000
     27      -5.6492      2.00000
     28      -5.5568      2.00000
     29      -5.4410      2.00000
     30      -5.4122      2.00000
     31      -5.3860      2.00000
     32      -5.3326      2.00000
     33      -5.3039      2.00000
     34      -5.2612      2.00000
     35      -5.2184      2.00000
     36      -5.1757      2.00000
     37      -5.1171      2.00000
     38      -5.0609      2.00000
     39      -5.0260      2.00000
     40      -4.9944      2.00000
     41      -4.9329      2.00000
     42      -4.9251      2.00000
     43      -4.9047      2.00000
     44      -4.8336      2.00000
     45      -4.7806      2.00000
     46      -4.6763      2.00000
     47      -4.5946      2.00000
     48      -4.5666      2.00000
     49      -4.5385      2.00000
     50      -4.4809      2.00000
     51      -4.4433      2.00000
     52      -4.4366      2.00000
     53      -4.4066      2.00000
     54      -4.3452      2.00000
     55      -4.2882      2.00000
     56      -4.2687      2.00000
     57      -4.2059      2.00000
     58      -4.1774      2.00000
     59      -4.1182      2.00000
     60      -4.1067      2.00000
     61      -4.0939      2.00000
     62      -4.0222      2.00000
     63      -4.0041      2.00000
     64      -3.9773      2.00000
     65      -3.9439      2.00000
     66      -3.9231      2.00000
     67      -3.8837      2.00000
     68      -3.8631      2.00000
     69      -3.5807      2.00000
     70      -3.4308      2.00000
     71      -2.8710      2.00000
     72      -2.0741      0.00006
     73      -1.3455      0.00000
     74      -0.7209      0.00000
     75      -0.2213      0.00000
     76      -0.0812      0.00000
     77       0.3848      0.00000
     78       1.2782      0.00000
     79       1.3392      0.00000
     80       1.9437      0.00000
     81       2.6304      0.00000
     82       2.7196      0.00000
     83       3.2029      0.00000
     84       3.6554      0.00000
     85       3.7570      0.00000
     86       4.1962      0.00000
     87       4.3283      0.00000
     88       4.3714      0.00000
     89       4.5439      0.00000
     90       4.6982      0.00000
     91       4.7291      0.00000
     92       4.9707      0.00000
     93       5.0316      0.00000
     94       5.0509      0.00000
     95       5.1133      0.00000
     96       5.2186      0.00000


--------------------------------------------------------------------------------------------------------


 soft charge-density along one line, spin component           1
         0         1         2         3         4         5         6         7         8         9
 total charge-density along one line
 
 pseudopotential strength for first ion, spin component:           1
 -9.912  -0.001  -0.004  -0.005  -0.000   0.576   0.001   0.003
 -0.001  -9.873  -0.001   0.003  -0.003   0.001   0.545   0.001
 -0.004  -0.001  -9.866  -0.002  -0.002   0.003   0.001   0.538
 -0.005   0.003  -0.002  -9.870  -0.001   0.004  -0.002   0.002
 -0.000  -0.003  -0.002  -0.001  -9.911   0.000   0.002   0.002
  0.576   0.001   0.003   0.004   0.000   6.584  -0.001  -0.002
  0.001   0.545   0.001  -0.002   0.002  -0.001   6.606  -0.001
  0.003   0.001   0.538   0.002   0.002  -0.002  -0.001   6.612
  0.004  -0.002   0.002   0.542   0.001  -0.003   0.002  -0.001
  0.000   0.002   0.002   0.001   0.575  -0.000  -0.002  -0.001
 -0.001   0.000  -0.008   0.001  -0.000   0.000  -0.000   0.003
 -0.001   0.001  -0.014   0.001  -0.001   0.001  -0.000   0.005
  0.001  -0.010  -0.000   0.000  -0.000  -0.001   0.010   0.000
  0.000   0.001  -0.009   0.001   0.000  -0.000  -0.000   0.009
  0.001   0.000  -0.001  -0.009   0.001  -0.000  -0.000   0.000
  0.001  -0.011  -0.000   0.000  -0.000  -0.001   0.012   0.000
  0.000   0.001  -0.010   0.001   0.000  -0.000  -0.000   0.011
  0.001   0.000  -0.001  -0.011   0.001  -0.000  -0.000   0.000
 total augmentation occupancy for first ion, spin component:           1
  1.908  -0.000  -0.002  -0.005  -0.001  -0.016   0.000   0.000   0.005   0.000  -0.000  -0.000  -0.001   0.001   0.006   0.001
 -0.000   1.924  -0.002   0.001  -0.005  -0.000  -0.032   0.000  -0.000   0.005  -0.004   0.000   0.007   0.000   0.002  -0.009
 -0.002  -0.002   1.926  -0.003  -0.001   0.000   0.000  -0.028   0.001   0.000  -0.004   0.013  -0.001   0.053  -0.003  -0.000
 -0.005   0.001  -0.003   1.925  -0.000   0.005  -0.000   0.001  -0.032  -0.000  -0.008   0.000   0.002   0.000   0.009  -0.000
 -0.001  -0.005  -0.001  -0.000   1.909   0.000   0.005   0.000   0.000  -0.016  -0.000  -0.000   0.008   0.001  -0.001  -0.001
 -0.016  -0.000   0.000   0.005   0.000   0.014  -0.000  -0.000   0.000  -0.000  -0.000   0.000   0.000  -0.000   0.003  -0.000
  0.000  -0.032   0.000  -0.000   0.005  -0.000   0.010  -0.000  -0.000   0.000   0.001   0.000   0.017  -0.000  -0.000  -0.001
  0.000   0.000  -0.028   0.001   0.000  -0.000  -0.000   0.013  -0.000  -0.000  -0.043   0.002   0.000   0.022   0.001  -0.000
  0.005  -0.000   0.001  -0.032   0.000   0.000  -0.000  -0.000   0.010  -0.000   0.001   0.000  -0.000  -0.000   0.017   0.000
  0.000   0.005   0.000  -0.000  -0.016  -0.000   0.000  -0.000  -0.000   0.014  -0.000   0.000   0.002  -0.000   0.000  -0.000
 -0.000  -0.004  -0.004  -0.008  -0.000  -0.000   0.001  -0.043   0.001  -0.000   1.699  -0.135  -0.002   0.131  -0.003   0.000
 -0.000   0.000   0.013   0.000  -0.000   0.000   0.000   0.002   0.000   0.000  -0.135   0.016  -0.000  -0.022  -0.000  -0.000
 -0.001   0.007  -0.001   0.002   0.008   0.000   0.017   0.000  -0.000   0.002  -0.002  -0.000   0.209   0.001   0.000  -0.013
  0.001   0.000   0.053   0.000   0.001  -0.000  -0.000   0.022  -0.000  -0.000   0.131  -0.022   0.001   0.127   0.001  -0.000
  0.006   0.002  -0.003   0.009  -0.001   0.003  -0.000   0.001   0.017   0.000  -0.003  -0.000   0.000   0.001   0.209   0.000
  0.001  -0.009  -0.000  -0.000  -0.001  -0.000  -0.001  -0.000   0.000  -0.000   0.000  -0.000  -0.013  -0.000   0.000   0.001
 -0.000   0.000  -0.014   0.001  -0.000   0.000  -0.000  -0.001  -0.000   0.000  -0.019   0.002  -0.000  -0.009  -0.000   0.000
 -0.000  -0.000  -0.000  -0.009   0.001  -0.000   0.000  -0.000  -0.001  -0.000   0.000  -0.000   0.000  -0.000  -0.013  -0.000


------------------------ aborting loop because EDIFF is reached ----------------------------------------


    CHARGE:  cpu time      0.0562: real time      0.0566
    FORLOC:  cpu time      0.0021: real time      0.0021
    FORNL :  cpu time      0.1643: real time      0.1657
    STRESS:  cpu time      1.6136: real time      1.6253
    FORCOR:  cpu time      0.0188: real time      0.0189
    FORHAR:  cpu time      0.0049: real time      0.0049
    MIXING:  cpu time      0.0011: real time      0.0011
    OFIELD:  cpu time      0.0000: real time      0.0000

  FORCE on cell =-STRESS in cart. coord.  units (eV):
  Direction    XX          YY          ZZ          XY          YZ          ZX
  --------------------------------------------------------------------------------------
  Alpha Z   154.47939   154.47939   154.47939
  Ewald  141411.30152141411.30152************    -0.00000    -0.00000    -0.00000
  Hartree145585.04604145585.04604************     0.00000    -0.00000    -0.00000
  E(xc)    -814.52489  -814.52476  -814.91950    -0.00011     0.00000     0.00000
  Local  ************************291233.58581     0.00208    -0.00000    -0.00000
  n-local  -272.28088  -283.97265  -292.28665    -6.56900    -0.04446    -0.02867
  augment  1142.11467  1142.11679  1143.28658    -0.00183     0.00001     0.00001
  Kinetic  1267.91516  1270.68148  1248.63108     2.08586    -0.96805     1.22215
  Fock        0.00000     0.00000     0.00000     0.00000     0.00000     0.00000
  -------------------------------------------------------------------------------------
  Total      -1.55297    -1.55297    -1.40919     0.00000    -0.00000     0.00000
  in kB      -3.21660    -3.21660    -2.91880     0.00000    -0.00000     0.00000
  external pressure =       -3.12 kB  Pullay stress =        0.00 kB


 VOLUME and BASIS-vectors are now :
 -----------------------------------------------------------------------------
  energy-cutoff  :      600.00
  volume of cell :      773.53
      direct lattice vectors                 reciprocal lattice vectors
     5.112382028  0.000000000  0.000000000     0.195603536 -0.112931754  0.000000000
     2.556191014  4.427452710  0.000000000     0.000000000  0.225863508  0.000000000
     0.000000000  0.000000000 34.174242446     0.000000000  0.000000000  0.029261804

  length of vectors
     5.112382028  5.112382028 34.174242446     0.225863508  0.225863508  0.029261804


 FORCES acting on ions
    electron-ion (+dipol)            ewald-force                    non-local-force                 convergence-correction
 -----------------------------------------------------------------------------------------------
   -.361E+00 -.209E+00 0.341E+04   0.134E+00 0.773E-01 -.341E+04   0.207E+00 0.119E+00 -.204E+01   0.247E-02 0.143E-02 -.165E-02
   0.361E+00 -.209E+00 0.341E+04   -.134E+00 0.773E-01 -.341E+04   -.207E+00 0.119E+00 -.204E+01   -.247E-02 0.143E-02 -.165E-02
   0.264E-05 0.417E+00 0.341E+04   0.310E-11 -.155E+00 -.341E+04   0.112E-17 -.239E+00 -.204E+01   0.108E-08 -.286E-02 -.165E-02
   0.256E-05 0.148E-05 0.341E+04   0.315E-11 0.163E-11 -.341E+04   -.855E-18 -.509E-17 -.259E+01   -.121E-09 -.698E-10 -.397E-02
   -.243E-05 -.348E+01 0.322E+03   -.453E-11 0.299E+01 -.322E+03   -.665E-17 0.389E+00 -.425E+00   -.946E-09 0.205E-02 -.130E-01
   -.228E-05 -.131E-05 0.318E+03   -.477E-11 -.280E-11 -.318E+03   -.557E-17 -.289E-17 0.568E+00   0.603E-11 0.352E-11 -.118E-01
   0.301E+01 0.174E+01 0.322E+03   -.259E+01 -.149E+01 -.322E+03   -.337E+00 -.195E+00 -.425E+00   -.177E-02 -.102E-02 -.130E-01
   -.301E+01 0.174E+01 0.322E+03   0.259E+01 -.149E+01 -.322E+03   0.337E+00 -.195E+00 -.425E+00   0.177E-02 -.102E-02 -.130E-01
   0.575E-06 0.332E-06 -.265E+04   0.145E-11 0.111E-11 0.265E+04   0.112E-16 0.161E-17 0.172E+01   -.615E-09 -.355E-09 -.178E-01
   0.256E-06 0.187E-01 -.281E+04   0.150E-11 0.111E-11 0.280E+04   0.340E-17 0.224E-02 0.347E+01   -.528E-09 0.308E-02 -.922E-02
   0.162E-01 -.936E-02 -.281E+04   0.148E-11 0.110E-11 0.280E+04   0.194E-02 -.112E-02 0.347E+01   0.267E-02 -.154E-02 -.922E-02
   -.162E-01 -.936E-02 -.281E+04   0.153E-11 0.111E-11 0.280E+04   -.194E-02 -.112E-02 0.347E+01   -.267E-02 -.154E-02 -.922E-02
   -.898E-05 -.518E-05 -.245E+04   -.168E-13 0.706E-14 0.251E+04   0.826E-19 0.433E-19 -.600E+02   -.150E-10 -.867E-11 0.893E-03
   0.198E-05 0.114E-05 -.139E+04   0.864E-14 -.102E-14 0.137E+04   -.215E-21 -.914E-19 0.182E+02   -.150E-10 -.868E-11 -.336E-02
 -----------------------------------------------------------------------------------------------
   -.457E-05 -.264E-05 0.391E+02   -.112E-12 0.129E-13 -.227E-12   0.278E-16 -.278E-16 -.390E+02   -.864E-09 -.499E-09 -.108E+00
 
 
 POSITION                                       TOTAL-FORCE (eV/Angst)
 -----------------------------------------------------------------------------------
      1.27810      0.73791     15.00000        -0.018104     -0.010452      0.042908
      3.83429      0.73791     15.00000         0.018104     -0.010452      0.042908
      2.55619      2.95164     15.00000         0.000000      0.020904      0.042908
      5.11238      2.95164     15.00000         0.000000     -0.000000      0.125954
      5.11238      1.47582     17.08712         0.000000     -0.096936      0.025675
      2.55619      1.47582     17.08712         0.000000     -0.000000      0.106795
      6.39048      3.68954     17.08712         0.083949      0.048468      0.025675
      3.83429      3.68954     17.08712        -0.083949      0.048468      0.025675
      0.00000      0.00000     19.17424         0.000000     -0.000000      0.128451
      2.55619      0.00000     19.17424         0.000000      0.024038     -0.198016
      1.27810      2.21373     19.17424         0.020818     -0.012019     -0.198016
      3.83429      2.21373     19.17424        -0.020818     -0.012019     -0.198016
      0.00000      0.00000     22.17218         0.000000     -0.000000      0.053544
      0.00000      0.00000     21.01284         0.000000     -0.000000     -0.026443
 -----------------------------------------------------------------------------------
    total drift:                               -0.000005     -0.000003      0.001265


--------------------------------------------------------------------------------------------------------



  FREE ENERGIE OF THE ION-ELECTRON SYSTEM (eV)
  ---------------------------------------------------
  free  energy   TOTEN  =       -56.38997545 eV

  energy  without entropy=      -56.36577147  energy(sigma->0) =      -56.37787346
 
 d Force = 0.2106880E-03[ 0.121E-03, 0.301E-03]  d Energy = 0.2099660E-03 0.722E-06
 d Force = 0.1335707E+02[ 0.134E+02, 0.134E+02]  d Ewald  = 0.1335707E+02 0.523E-06


--------------------------------------------------------------------------------------------------------


    POTLOK:  cpu time      0.0212: real time      0.0213


--------------------------------------------------------------------------------------------------------




--------------------------------------------------------------------------------------------------------


    WAVPRE:  cpu time      0.0059: real time      0.0255
    FEWALD:  cpu time      0.0003: real time      0.0003
    ORTHCH:  cpu time      0.1697: real time      0.1717
     LOOP+:  cpu time     11.4914: real time     11.6283


--------------------------------------- Iteration      7(   1)  ---------------------------------------


    POTLOK:  cpu time      0.0196: real time      0.0201
    SETDIJ:  cpu time      0.0029: real time      0.0030
     EDDAV:  cpu time      1.4469: real time      1.4593
       DOS:  cpu time      0.0003: real time      0.0003
    CHARGE:  cpu time      0.0581: real time      0.0584
    MIXING:  cpu time      0.0006: real time      0.0006
    --------------------------------------------
      LOOP:  cpu time      1.5283: real time      1.5416

 eigenvalue-minimisations  :   960
 total energy-change (2. order) : 0.4135067E-03  (-0.3060298E-01)
 number of electron     142.0000061 magnetization 
 augmentation part       84.9207846 magnetization 

 Broyden mixing:
  rms(total) = 0.15736E-01    rms(broyden)= 0.15718E-01
  rms(prec ) = 0.15849E-01
  weight for this iteration     100.00

 Free energy of the ion-electron system (eV)
  ---------------------------------------------------
  alpha Z        PSCENC =       154.47939101
  Ewald energy   TEWEN  =    132658.21317972
  -Hartree energ DENC   =   -148607.29358714
  -exchange      EXHF   =         0.00000000
  -V(xc)+E(xc)   XCENC  =       574.84527110
  PAW double counting   =     16509.81669176   -17804.73060331
  entropy T*S    EENTRO =        -0.02432116
  eigenvalues    EBANDS =      -812.93737086
  atomic energy  EATOM  =     17271.24178720
  Solvation  Ecorr_sol  =         0.00000000
  ---------------------------------------------------
  free energy    TOTEN  =       -56.38956169 eV

  energy without entropy =      -56.36524053  energy(sigma->0) =      -56.37740111


--------------------------------------------------------------------------------------------------------




--------------------------------------- Iteration      7(   2)  ---------------------------------------


    POTLOK:  cpu time      0.0195: real time      0.0200
    SETDIJ:  cpu time      0.0016: real time      0.0016
     EDDAV:  cpu time      1.7183: real time      1.7333
       DOS:  cpu time      0.0003: real time      0.0003
    CHARGE:  cpu time      0.0582: real time      0.0586
    MIXING:  cpu time      0.0008: real time      0.0008
    --------------------------------------------
      LOOP:  cpu time      1.7987: real time      1.8147

 eigenvalue-minimisations  :  1152
 total energy-change (2. order) :-0.3249510E-03  (-0.4408598E-03)
 number of electron     142.0000061 magnetization 
 augmentation part       84.9168802 magnetization 

 Broyden mixing:
  rms(total) = 0.92483E-02    rms(broyden)= 0.92464E-02
  rms(prec ) = 0.94262E-02
  weight for this iteration     100.00

 eigenvalues of (default mixing * dielectric matrix)
  average eigenvalue GAMMA=   0.9780
  0.9780

 Free energy of the ion-electron system (eV)
  ---------------------------------------------------
  alpha Z        PSCENC =       154.47939101
  Ewald energy   TEWEN  =    132658.21317972
  -Hartree energ DENC   =   -148607.46501743
  -exchange      EXHF   =         0.00000000
  -V(xc)+E(xc)   XCENC  =       574.84546155
  PAW double counting   =     16507.11956723   -17802.05388125
  entropy T*S    EENTRO =        -0.02429333
  eigenvalues    EBANDS =      -812.74608134
  atomic energy  EATOM  =     17271.24178720
  Solvation  Ecorr_sol  =         0.00000000
  ---------------------------------------------------
  free energy    TOTEN  =       -56.38988664 eV

  energy without entropy =      -56.36559332  energy(sigma->0) =      -56.37773998


--------------------------------------------------------------------------------------------------------




--------------------------------------- Iteration      7(   3)  ---------------------------------------


    POTLOK:  cpu time      0.0202: real time      0.0206
    SETDIJ:  cpu time      0.0016: real time      0.0016
     EDDAV:  cpu time      1.4967: real time      1.5094
       DOS:  cpu time      0.0003: real time      0.0003
    CHARGE:  cpu time      0.0580: real time      0.0584
    MIXING:  cpu time      0.0008: real time      0.0008
    --------------------------------------------
      LOOP:  cpu time      1.5776: real time      1.5910

 eigenvalue-minimisations  :  1024
 total energy-change (2. order) :-0.4885850E-04  (-0.8772730E-04)
 number of electron     142.0000061 magnetization 
 augmentation part       84.9213956 magnetization 

 Broyden mixing:
  rms(total) = 0.98527E-02    rms(broyden)= 0.98521E-02
  rms(prec ) = 0.10103E-01
  weight for this iteration     100.00

 eigenvalues of (default mixing * dielectric matrix)
  average eigenvalue GAMMA=   0.9686
  1.5415  0.3958

 Free energy of the ion-electron system (eV)
  ---------------------------------------------------
  alpha Z        PSCENC =       154.47939101
  Ewald energy   TEWEN  =    132658.21317972
  -Hartree energ DENC   =   -148607.12682336
  -exchange      EXHF   =         0.00000000
  -V(xc)+E(xc)   XCENC  =       574.84189575
  PAW double counting   =     16506.13361290   -17801.01207401
  entropy T*S    EENTRO =        -0.02431486
  eigenvalues    EBANDS =      -813.13658985
  atomic energy  EATOM  =     17271.24178720
  Solvation  Ecorr_sol  =         0.00000000
  ---------------------------------------------------
  free energy    TOTEN  =       -56.38993550 eV

  energy without entropy =      -56.36562064  energy(sigma->0) =      -56.37777807


--------------------------------------------------------------------------------------------------------




--------------------------------------- Iteration      7(   4)  ---------------------------------------


    POTLOK:  cpu time      0.0211: real time      0.0283
    SETDIJ:  cpu time      0.0015: real time      0.0016
     EDDAV:  cpu time      1.6679: real time      1.6814
       DOS:  cpu time      0.0003: real time      0.0003
    CHARGE:  cpu time      0.0591: real time      0.0595
    MIXING:  cpu time      0.0009: real time      0.0009
    --------------------------------------------
      LOOP:  cpu time      1.7507: real time      1.7719

 eigenvalue-minimisations  :  1088
 total energy-change (2. order) : 0.9095527E-04  (-0.3508468E-04)
 number of electron     142.0000061 magnetization 
 augmentation part       84.9205429 magnetization 

 Broyden mixing:
  rms(total) = 0.32212E-02    rms(broyden)= 0.32209E-02
  rms(prec ) = 0.32643E-02
  weight for this iteration     100.00

 eigenvalues of (default mixing * dielectric matrix)
  average eigenvalue GAMMA=   1.1450
  2.1746  0.8836  0.3768

 Free energy of the ion-electron system (eV)
  ---------------------------------------------------
  alpha Z        PSCENC =       154.47939101
  Ewald energy   TEWEN  =    132658.21317972
  -Hartree energ DENC   =   -148607.10515378
  -exchange      EXHF   =         0.00000000
  -V(xc)+E(xc)   XCENC  =       574.84295787
  PAW double counting   =     16505.60828321   -17800.48978257
  entropy T*S    EENTRO =        -0.02429124
  eigenvalues    EBANDS =      -813.15621597
  atomic energy  EATOM  =     17271.24178720
  Solvation  Ecorr_sol  =         0.00000000
  ---------------------------------------------------
  free energy    TOTEN  =       -56.38984454 eV

  energy without entropy =      -56.36555330  energy(sigma->0) =      -56.37769892


--------------------------------------------------------------------------------------------------------




--------------------------------------- Iteration      7(   5)  ---------------------------------------


    POTLOK:  cpu time      0.0197: real time      0.0201
    SETDIJ:  cpu time      0.0015: real time      0.0015
     EDDAV:  cpu time      1.7367: real time      1.7518
       DOS:  cpu time      0.0003: real time      0.0003
    CHARGE:  cpu time      0.0563: real time      0.0567
    MIXING:  cpu time      0.0008: real time      0.0009
    --------------------------------------------
      LOOP:  cpu time      1.8154: real time      1.8313

 eigenvalue-minimisations  :  1312
 total energy-change (2. order) :-0.1215877E-04  (-0.8595301E-05)
 number of electron     142.0000061 magnetization 
 augmentation part       84.9179505 magnetization 

 Broyden mixing:
  rms(total) = 0.20585E-02    rms(broyden)= 0.20584E-02
  rms(prec ) = 0.21535E-02
  weight for this iteration     100.00

 eigenvalues of (default mixing * dielectric matrix)
  average eigenvalue GAMMA=   1.0912
  2.4413  1.0447  0.5052  0.3735

 Free energy of the ion-electron system (eV)
  ---------------------------------------------------
  alpha Z        PSCENC =       154.47939101
  Ewald energy   TEWEN  =    132658.21317972
  -Hartree energ DENC   =   -148607.18371294
  -exchange      EXHF   =         0.00000000
  -V(xc)+E(xc)   XCENC  =       574.84586830
  PAW double counting   =     16505.27828768   -17800.17987439
  entropy T*S    EENTRO =        -0.02433159
  eigenvalues    EBANDS =      -813.06045169
  atomic energy  EATOM  =     17271.24178720
  Solvation  Ecorr_sol  =         0.00000000
  ---------------------------------------------------
  free energy    TOTEN  =       -56.38985670 eV

  energy without entropy =      -56.36552511  energy(sigma->0) =      -56.37769091


--------------------------------------------------------------------------------------------------------




--------------------------------------- Iteration      7(   6)  ---------------------------------------


    POTLOK:  cpu time      0.0191: real time      0.0219
    SETDIJ:  cpu time      0.0015: real time      0.0015
     EDDAV:  cpu time      1.4035: real time      1.4158
       DOS:  cpu time      0.0003: real time      0.0003
    CHARGE:  cpu time      0.0553: real time      0.0557
    MIXING:  cpu time      0.0008: real time      0.0008
    --------------------------------------------
      LOOP:  cpu time      1.4805: real time      1.4959

 eigenvalue-minimisations  :  1024
 total energy-change (2. order) : 0.7328417E-06  (-0.6660252E-05)
 number of electron     142.0000061 magnetization 
 augmentation part       84.9190123 magnetization 

 Broyden mixing:
  rms(total) = 0.12217E-02    rms(broyden)= 0.12216E-02
  rms(prec ) = 0.13760E-02
  weight for this iteration     100.00

 eigenvalues of (default mixing * dielectric matrix)
  average eigenvalue GAMMA=   1.0040
  2.4898  1.1334  0.6647  0.3877  0.3446

 Free energy of the ion-electron system (eV)
  ---------------------------------------------------
  alpha Z        PSCENC =       154.47939101
  Ewald energy   TEWEN  =    132658.21317972
  -Hartree energ DENC   =   -148607.13887562
  -exchange      EXHF   =         0.00000000
  -V(xc)+E(xc)   XCENC  =       574.84452209
  PAW double counting   =     16505.13258745   -17800.02226741
  entropy T*S    EENTRO =        -0.02427158
  eigenvalues    EBANDS =      -813.11590883
  atomic energy  EATOM  =     17271.24178720
  Solvation  Ecorr_sol  =         0.00000000
  ---------------------------------------------------
  free energy    TOTEN  =       -56.38985597 eV

  energy without entropy =      -56.36558439  energy(sigma->0) =      -56.37772018


--------------------------------------------------------------------------------------------------------




--------------------------------------- Iteration      7(   7)  ---------------------------------------


    POTLOK:  cpu time      0.0191: real time      0.0196
    SETDIJ:  cpu time      0.0014: real time      0.0014
     EDDAV:  cpu time      1.3475: real time      1.3593
       DOS:  cpu time      0.0003: real time      0.0003
    CHARGE:  cpu time      0.0559: real time      0.0563
    MIXING:  cpu time      0.0008: real time      0.0008
    --------------------------------------------
      LOOP:  cpu time      1.4251: real time      1.4377

 eigenvalue-minimisations  :   992
 total energy-change (2. order) : 0.1648019E-05  (-0.3115169E-05)
 number of electron     142.0000061 magnetization 
 augmentation part       84.9195834 magnetization 

 Broyden mixing:
  rms(total) = 0.37086E-03    rms(broyden)= 0.37078E-03
  rms(prec ) = 0.43802E-03
  weight for this iteration     100.00

 eigenvalues of (default mixing * dielectric matrix)
  average eigenvalue GAMMA=   0.9431
  2.4926  1.2022  0.6301  0.6301  0.3763  0.3273

 Free energy of the ion-electron system (eV)
  ---------------------------------------------------
  alpha Z        PSCENC =       154.47939101
  Ewald energy   TEWEN  =    132658.21317972
  -Hartree energ DENC   =   -148607.10822974
  -exchange      EXHF   =         0.00000000
  -V(xc)+E(xc)   XCENC  =       574.84417197
  PAW double counting   =     16505.09527661   -17799.97893204
  entropy T*S    EENTRO =        -0.02431084
  eigenvalues    EBANDS =      -813.15218821
  atomic energy  EATOM  =     17271.24178720
  Solvation  Ecorr_sol  =         0.00000000
  ---------------------------------------------------
  free energy    TOTEN  =       -56.38985432 eV

  energy without entropy =      -56.36554348  energy(sigma->0) =      -56.37769890


--------------------------------------------------------------------------------------------------------




--------------------------------------- Iteration      7(   8)  ---------------------------------------


    POTLOK:  cpu time      0.0186: real time      0.0190
    SETDIJ:  cpu time      0.0015: real time      0.0015
     EDDAV:  cpu time      1.0639: real time      1.0735
       DOS:  cpu time      0.0003: real time      0.0003
    --------------------------------------------
      LOOP:  cpu time      1.0843: real time      1.0942

 eigenvalue-minimisations  :   704
 total energy-change (2. order) : 0.2380111E-06  (-0.5115641E-06)
 number of electron     142.0000061 magnetization 
 augmentation part       84.9195834 magnetization 

 Free energy of the ion-electron system (eV)
  ---------------------------------------------------
  alpha Z        PSCENC =       154.47939101
  Ewald energy   TEWEN  =    132658.21317972
  -Hartree energ DENC   =   -148607.12177833
  -exchange      EXHF   =         0.00000000
  -V(xc)+E(xc)   XCENC  =       574.84452010
  PAW double counting   =     16505.11028339   -17799.99633006
  entropy T*S    EENTRO =        -0.02429858
  eigenvalues    EBANDS =      -813.13660853
  atomic energy  EATOM  =     17271.24178720
  Solvation  Ecorr_sol  =         0.00000000
  ---------------------------------------------------
  free energy    TOTEN  =       -56.38985408 eV

  energy without entropy =      -56.36555550  energy(sigma->0) =      -56.37770479


--------------------------------------------------------------------------------------------------------




 average (electrostatic) potential at core
  the test charge radii are     0.9430  0.7215  0.6991
  (the norm of the test charge is              1.0000)
       1 -73.3202       2 -73.3202       3 -73.3202       4 -73.3953       5 -73.5493
       6 -73.5904       7 -73.5493       8 -73.5493       9 -74.3747      10 -73.2805
      11 -73.2805      12 -73.2805      13 -80.8306      14 -59.9392
 
 
 
 E-fermi :  -2.3571     XC(G=0):  -3.1714     alpha+bet : -2.6859

 Fermi energy:        -2.3570970099

 k-point     1 :       0.0000    0.0000    0.0000
  band No.  band energies     occupation 
      1     -26.5777      2.00000
      2     -12.2784      2.00000
      3     -10.8850      2.00000
      4      -9.7511      2.00000
      5      -9.3179      2.00000
      6      -9.3179      2.00000
      7      -8.5909      2.00000
      8      -7.4977      2.00000
      9      -7.0421      2.00000
     10      -7.0421      2.00000
     11      -6.9525      2.00000
     12      -6.9010      2.00000
     13      -6.9010      2.00000
     14      -6.7443      2.00000
     15      -6.5606      2.00000
     16      -6.5606      2.00000
     17      -6.4502      2.00000
     18      -6.4462      2.00000
     19      -6.4462      2.00000
     20      -6.3484      2.00000
     21      -6.0493      2.00000
     22      -6.0493      2.00000
     23      -5.6943      2.00000
     24      -5.4575      2.00000
     25      -5.4575      2.00000
     26      -5.4156      2.00000
     27      -5.3089      2.00000
     28      -5.2281      2.00000
     29      -5.2281      2.00000
     30      -5.1799      2.00000
     31      -5.1799      2.00000
     32      -5.1583      2.00000
     33      -5.0908      2.00000
     34      -5.0908      2.00000
     35      -5.0045      2.00000
     36      -4.9815      2.00000
     37      -4.9815      2.00000
     38      -4.9062      2.00000
     39      -4.8363      2.00000
     40      -4.8363      2.00000
     41      -4.6986      2.00000
     42      -4.6986      2.00000
     43      -4.4191      2.00000
     44      -4.4191      2.00000
     45      -4.4011      2.00000
     46      -4.4011      2.00000
     47      -4.4011      2.00000
     48      -4.3327      2.00000
     49      -4.1626      2.00000
     50      -4.1626      2.00000
     51      -4.0651      2.00000
     52      -4.0178      2.00000
     53      -4.0178      2.00000
     54      -3.9460      2.00000
     55      -3.9460      2.00000
     56      -3.9405      2.00000
     57      -3.9092      2.00000
     58      -3.9092      2.00000
     59      -3.8786      2.00000
     60      -3.8786      2.00000
     61      -3.8397      2.00000
     62      -3.8216      2.00000
     63      -3.8216      2.00000
     64      -3.6726      2.00000
     65      -3.6726      2.00000
     66      -3.6504      2.00000
     67      -3.5986      2.00000
     68      -3.2277      2.00000
     69      -2.5345      1.99720
     70      -2.5345      1.99720
     71      -2.2845      0.12724
     72      -1.5468      0.00000
     73      -1.5468      0.00000
     74      -1.3024      0.00000
     75      -1.1435      0.00000
     76      -0.8336      0.00000
     77      -0.8336      0.00000
     78      -0.7590      0.00000
     79       0.8216      0.00000
     80       0.8216      0.00000
     81       1.6242      0.00000
     82       2.1871      0.00000
     83       2.1986      0.00000
     84       2.1986      0.00000
     85       2.3471      0.00000
     86       2.5669      0.00000
     87       2.8870      0.00000
     88       3.0511      0.00000
     89       3.1165      0.00000
     90       3.1165      0.00000
     91       3.6978      0.00000
     92       3.7889      0.00000
     93       3.9385      0.00000
     94       4.1759      0.00000
     95       4.1759      0.00000
     96       4.9199      0.00000

 k-point     2 :       0.2000    0.0000    0.0000
  band No.  band energies     occupation 
      1     -26.5774      2.00000
      2     -12.2444      2.00000
      3     -10.6130      2.00000
      4      -9.6540      2.00000
      5      -9.3460      2.00000
      6      -9.3243      2.00000
      7      -8.3873      2.00000
      8      -7.3097      2.00000
      9      -7.2708      2.00000
     10      -6.9782      2.00000
     11      -6.9161      2.00000
     12      -6.8602      2.00000
     13      -6.7807      2.00000
     14      -6.6638      2.00000
     15      -6.4839      2.00000
     16      -6.4596      2.00000
     17      -6.4045      2.00000
     18      -6.3338      2.00000
     19      -6.3160      2.00000
     20      -6.2285      2.00000
     21      -6.0180      2.00000
     22      -6.0009      2.00000
     23      -5.6917      2.00000
     24      -5.4923      2.00000
     25      -5.4315      2.00000
     26      -5.4239      2.00000
     27      -5.3816      2.00000
     28      -5.3031      2.00000
     29      -5.2748      2.00000
     30      -5.2159      2.00000
     31      -5.2066      2.00000
     32      -5.1295      2.00000
     33      -5.1280      2.00000
     34      -5.0919      2.00000
     35      -5.0562      2.00000
     36      -5.0313      2.00000
     37      -5.0007      2.00000
     38      -4.9519      2.00000
     39      -4.9295      2.00000
     40      -4.8843      2.00000
     41      -4.7887      2.00000
     42      -4.7167      2.00000
     43      -4.5596      2.00000
     44      -4.5294      2.00000
     45      -4.4959      2.00000
     46      -4.4547      2.00000
     47      -4.4276      2.00000
     48      -4.3669      2.00000
     49      -4.3528      2.00000
     50      -4.2717      2.00000
     51      -4.2357      2.00000
     52      -4.1767      2.00000
     53      -4.1607      2.00000
     54      -4.0851      2.00000
     55      -4.0593      2.00000
     56      -4.0435      2.00000
     57      -4.0334      2.00000
     58      -4.0027      2.00000
     59      -4.0026      2.00000
     60      -3.9474      2.00000
     61      -3.9311      2.00000
     62      -3.9159      2.00000
     63      -3.8840      2.00000
     64      -3.8457      2.00000
     65      -3.8288      2.00000
     66      -3.7865      2.00000
     67      -3.7475      2.00000
     68      -3.6623      2.00000
     69      -3.0001      2.00000
     70      -2.5537      1.99862
     71      -2.4380      1.90478
     72      -2.3660      1.16313
     73      -1.6410      0.00000
     74      -1.5146      0.00000
     75      -0.9056      0.00000
     76      -0.2389      0.00000
     77      -0.1959      0.00000
     78       0.1967      0.00000
     79       1.0951      0.00000
     80       1.1052      0.00000
     81       1.9378      0.00000
     82       2.5001      0.00000
     83       2.6593      0.00000
     84       2.6794      0.00000
     85       2.8710      0.00000
     86       2.9918      0.00000
     87       3.1972      0.00000
     88       3.2208      0.00000
     89       3.3204      0.00000
     90       3.4522      0.00000
     91       4.0183      0.00000
     92       4.1349      0.00000
     93       4.2728      0.00000
     94       4.6589      0.00000
     95       4.7314      0.00000
     96       5.2364      0.00000

 k-point     3 :       0.4000    0.0000    0.0000
  band No.  band energies     occupation 
      1     -26.5769      2.00000
      2     -12.1959      2.00000
      3      -9.9485      2.00000
      4      -9.4299      2.00000
      5      -9.3348      2.00000
      6      -9.3346      2.00000
      7      -8.3100      2.00000
      8      -7.7438      2.00000
      9      -7.0489      2.00000
     10      -6.8328      2.00000
     11      -6.7561      2.00000
     12      -6.7184      2.00000
     13      -6.5278      2.00000
     14      -6.4678      2.00000
     15      -6.3749      2.00000
     16      -6.2210      2.00000
     17      -6.1940      2.00000
     18      -6.1389      2.00000
     19      -6.1387      2.00000
     20      -5.9787      2.00000
     21      -5.8833      2.00000
     22      -5.8583      2.00000
     23      -5.7816      2.00000
     24      -5.6851      2.00000
     25      -5.6361      2.00000
     26      -5.6085      2.00000
     27      -5.5515      2.00000
     28      -5.5024      2.00000
     29      -5.3843      2.00000
     30      -5.3784      2.00000
     31      -5.3381      2.00000
     32      -5.2329      2.00000
     33      -5.1922      2.00000
     34      -5.1361      2.00000
     35      -5.0826      2.00000
     36      -5.0297      2.00000
     37      -4.9947      2.00000
     38      -4.9823      2.00000
     39      -4.9348      2.00000
     40      -4.9067      2.00000
     41      -4.8900      2.00000
     42      -4.8389      2.00000
     43      -4.8369      2.00000
     44      -4.8165      2.00000
     45      -4.7977      2.00000
     46      -4.7532      2.00000
     47      -4.6219      2.00000
     48      -4.5831      2.00000
     49      -4.5574      2.00000
     50      -4.5305      2.00000
     51      -4.4694      2.00000
     52      -4.4333      2.00000
     53      -4.3661      2.00000
     54      -4.3295      2.00000
     55      -4.3286      2.00000
     56      -4.3081      2.00000
     57      -4.1938      2.00000
     58      -4.1790      2.00000
     59      -4.1625      2.00000
     60      -4.1411      2.00000
     61      -4.1012      2.00000
     62      -4.0598      2.00000
     63      -3.9504      2.00000
     64      -3.9453      2.00000
     65      -3.9050      2.00000
     66      -3.8750      2.00000
     67      -3.8517      2.00000
     68      -3.7833      2.00000
     69      -3.5023      2.00000
     70      -2.4303      1.87529
     71      -2.3761      1.33795
     72      -2.2463      0.03251
     73      -1.5632      0.00000
     74      -1.3992      0.00000
     75      -1.0599      0.00000
     76      -0.0460      0.00000
     77       0.0373      0.00000
     78       0.6555      0.00000
     79       1.3494      0.00000
     80       1.9086      0.00000
     81       2.4714      0.00000
     82       2.8827      0.00000
     83       3.4336      0.00000
     84       3.6182      0.00000
     85       3.6693      0.00000
     86       3.7926      0.00000
     87       4.1179      0.00000
     88       4.1305      0.00000
     89       4.2733      0.00000
     90       4.6056      0.00000
     91       4.9248      0.00000
     92       4.9658      0.00000
     93       5.0860      0.00000
     94       5.1979      0.00000
     95       5.3237      0.00000
     96       5.4966      0.00000

 k-point     4 :       0.4000    0.2000    0.0000
  band No.  band energies     occupation 
      1     -26.5770      2.00000
      2     -12.2049      2.00000
      3     -10.1245      2.00000
      4      -9.4770      2.00000
      5      -9.3769      2.00000
      6      -9.3421      2.00000
      7      -7.9674      2.00000
      8      -7.5827      2.00000
      9      -7.5087      2.00000
     10      -6.8926      2.00000
     11      -6.8094      2.00000
     12      -6.7306      2.00000
     13      -6.6049      2.00000
     14      -6.4523      2.00000
     15      -6.3315      2.00000
     16      -6.3002      2.00000
     17      -6.2622      2.00000
     18      -6.1943      2.00000
     19      -6.1544      2.00000
     20      -6.0590      2.00000
     21      -5.9232      2.00000
     22      -5.9040      2.00000
     23      -5.7275      2.00000
     24      -5.6205      2.00000
     25      -5.5955      2.00000
     26      -5.5431      2.00000
     27      -5.5119      2.00000
     28      -5.4394      2.00000
     29      -5.3679      2.00000
     30      -5.3418      2.00000
     31      -5.2877      2.00000
     32      -5.2478      2.00000
     33      -5.1682      2.00000
     34      -5.1400      2.00000
     35      -5.1192      2.00000
     36      -5.0876      2.00000
     37      -5.0304      2.00000
     38      -4.9554      2.00000
     39      -4.9238      2.00000
     40      -4.8955      2.00000
     41      -4.8428      2.00000
     42      -4.7853      2.00000
     43      -4.7627      2.00000
     44      -4.7056      2.00000
     45      -4.6710      2.00000
     46      -4.6522      2.00000
     47      -4.6151      2.00000
     48      -4.5670      2.00000
     49      -4.5506      2.00000
     50      -4.5440      2.00000
     51      -4.4233      2.00000
     52      -4.3770      2.00000
     53      -4.3457      2.00000
     54      -4.3251      2.00000
     55      -4.2442      2.00000
     56      -4.2192      2.00000
     57      -4.1540      2.00000
     58      -4.1142      2.00000
     59      -4.0736      2.00000
     60      -4.0382      2.00000
     61      -4.0004      2.00000
     62      -3.9764      2.00000
     63      -3.9417      2.00000
     64      -3.9296      2.00000
     65      -3.9023      2.00000
     66      -3.8635      2.00000
     67      -3.7942      2.00000
     68      -3.6071      2.00000
     69      -3.5779      2.00000
     70      -3.0506      2.00000
     71      -3.0156      2.00000
     72      -2.1435      0.00073
     73      -1.0808      0.00000
     74      -1.0229      0.00000
     75      -0.5379      0.00000
     76      -0.1652      0.00000
     77       0.4011      0.00000
     78       0.5490      0.00000
     79       0.7999      0.00000
     80       1.3158      0.00000
     81       2.4973      0.00000
     82       2.7200      0.00000
     83       2.9702      0.00000
     84       3.1311      0.00000
     85       3.4802      0.00000
     86       3.6145      0.00000
     87       3.8160      0.00000
     88       3.9303      0.00000
     89       4.3420      0.00000
     90       4.5570      0.00000
     91       4.6630      0.00000
     92       4.7806      0.00000
     93       4.8088      0.00000
     94       5.2572      0.00000
     95       5.3252      0.00000
     96       5.8193      0.00000

 k-point     5 :      -0.4000    0.2000    0.0000
  band No.  band energies     occupation 
      1     -26.5767      2.00000
      2     -12.1831      2.00000
      3      -9.7619      2.00000
      4      -9.4140      2.00000
      5      -9.3584      2.00000
      6      -8.8134      2.00000
      7      -8.6485      2.00000
      8      -7.6476      2.00000
      9      -7.2318      2.00000
     10      -7.1631      2.00000
     11      -6.6588      2.00000
     12      -6.4466      2.00000
     13      -6.3868      2.00000
     14      -6.3358      2.00000
     15      -6.2716      2.00000
     16      -6.1158      2.00000
     17      -6.1067      2.00000
     18      -6.0310      2.00000
     19      -6.0197      2.00000
     20      -5.9447      2.00000
     21      -5.9142      2.00000
     22      -5.8798      2.00000
     23      -5.8050      2.00000
     24      -5.7628      2.00000
     25      -5.7500      2.00000
     26      -5.6954      2.00000
     27      -5.6496      2.00000
     28      -5.5565      2.00000
     29      -5.4412      2.00000
     30      -5.4126      2.00000
     31      -5.3865      2.00000
     32      -5.3336      2.00000
     33      -5.3047      2.00000
     34      -5.2621      2.00000
     35      -5.2189      2.00000
     36      -5.1762      2.00000
     37      -5.1179      2.00000
     38      -5.0615      2.00000
     39      -5.0267      2.00000
     40      -4.9954      2.00000
     41      -4.9339      2.00000
     42      -4.9262      2.00000
     43      -4.9058      2.00000
     44      -4.8346      2.00000
     45      -4.7817      2.00000
     46      -4.6774      2.00000
     47      -4.5955      2.00000
     48      -4.5672      2.00000
     49      -4.5391      2.00000
     50      -4.4822      2.00000
     51      -4.4436      2.00000
     52      -4.4375      2.00000
     53      -4.4076      2.00000
     54      -4.3462      2.00000
     55      -4.2889      2.00000
     56      -4.2695      2.00000
     57      -4.2070      2.00000
     58      -4.1784      2.00000
     59      -4.1192      2.00000
     60      -4.1077      2.00000
     61      -4.0950      2.00000
     62      -4.0230      2.00000
     63      -4.0049      2.00000
     64      -3.9783      2.00000
     65      -3.9450      2.00000
     66      -3.9244      2.00000
     67      -3.8847      2.00000
     68      -3.8642      2.00000
     69      -3.5816      2.00000
     70      -3.4334      2.00000
     71      -2.8730      2.00000
     72      -2.0758      0.00006
     73      -1.3493      0.00000
     74      -0.7256      0.00000
     75      -0.2237      0.00000
     76      -0.0912      0.00000
     77       0.3786      0.00000
     78       1.2735      0.00000
     79       1.3369      0.00000
     80       1.9386      0.00000
     81       2.6281      0.00000
     82       2.7159      0.00000
     83       3.1973      0.00000
     84       3.6565      0.00000
     85       3.7578      0.00000
     86       4.1952      0.00000
     87       4.3294      0.00000
     88       4.3712      0.00000
     89       4.5402      0.00000
     90       4.6969      0.00000
     91       4.7274      0.00000
     92       4.9693      0.00000
     93       5.0340      0.00000
     94       5.0460      0.00000
     95       5.1110      0.00000
     96       5.2259      0.00000


--------------------------------------------------------------------------------------------------------


 soft charge-density along one line, spin component           1
         0         1         2         3         4         5         6         7         8         9
 total charge-density along one line
 
 pseudopotential strength for first ion, spin component:           1
 -9.912  -0.001  -0.004  -0.005  -0.000   0.576   0.001   0.003
 -0.001  -9.874  -0.001   0.003  -0.003   0.001   0.545   0.001
 -0.004  -0.001  -9.866  -0.002  -0.002   0.003   0.001   0.538
 -0.005   0.003  -0.002  -9.871  -0.001   0.004  -0.002   0.002
 -0.000  -0.003  -0.002  -0.001  -9.912   0.000   0.002   0.002
  0.576   0.001   0.003   0.004   0.000   6.584  -0.001  -0.002
  0.001   0.545   0.001  -0.002   0.002  -0.001   6.606  -0.001
  0.003   0.001   0.538   0.002   0.002  -0.002  -0.001   6.611
  0.004  -0.002   0.002   0.543   0.001  -0.003   0.002  -0.001
  0.000   0.002   0.002   0.001   0.576  -0.000  -0.002  -0.001
 -0.001   0.000  -0.008   0.001  -0.000   0.000  -0.000   0.003
 -0.001   0.001  -0.014   0.001  -0.001   0.001  -0.000   0.005
  0.001  -0.010  -0.000   0.000  -0.000  -0.001   0.010   0.000
  0.000   0.001  -0.009   0.001   0.000  -0.000  -0.000   0.009
  0.001   0.000  -0.001  -0.009   0.001  -0.000  -0.000   0.000
  0.001  -0.011  -0.000   0.000  -0.000  -0.001   0.012   0.000
  0.000   0.001  -0.010   0.001   0.000  -0.000  -0.000   0.011
  0.001   0.000  -0.001  -0.011   0.001  -0.000  -0.000   0.000
 total augmentation occupancy for first ion, spin component:           1
  1.908  -0.000  -0.002  -0.005  -0.001  -0.016   0.000   0.000   0.005   0.000  -0.000  -0.000  -0.001   0.001   0.006   0.001
 -0.000   1.924  -0.002   0.001  -0.005  -0.000  -0.032   0.000  -0.000   0.005  -0.004   0.000   0.007   0.000   0.002  -0.009
 -0.002  -0.002   1.926  -0.003  -0.001   0.000   0.000  -0.028   0.001   0.000  -0.004   0.013  -0.001   0.053  -0.003  -0.000
 -0.005   0.001  -0.003   1.925  -0.000   0.005  -0.000   0.001  -0.032  -0.000  -0.008   0.000   0.002   0.000   0.009  -0.000
 -0.001  -0.005  -0.001  -0.000   1.909   0.000   0.005   0.000   0.000  -0.016  -0.000  -0.000   0.008   0.001  -0.001  -0.001
 -0.016  -0.000   0.000   0.005   0.000   0.014  -0.000  -0.000   0.000  -0.000  -0.000   0.000   0.000  -0.000   0.003  -0.000
  0.000  -0.032   0.000  -0.000   0.005  -0.000   0.010  -0.000  -0.000   0.000   0.001   0.000   0.017  -0.000  -0.000  -0.001
  0.000   0.000  -0.028   0.001   0.000  -0.000  -0.000   0.013  -0.000  -0.000  -0.043   0.002   0.000   0.022   0.001  -0.000
  0.005  -0.000   0.001  -0.032   0.000   0.000  -0.000  -0.000   0.010  -0.000   0.001   0.000  -0.000  -0.000   0.017   0.000
  0.000   0.005   0.000  -0.000  -0.016  -0.000   0.000  -0.000  -0.000   0.014  -0.000   0.000   0.002  -0.000   0.000  -0.000
 -0.000  -0.004  -0.004  -0.008  -0.000  -0.000   0.001  -0.043   0.001  -0.000   1.699  -0.135  -0.002   0.131  -0.003   0.000
 -0.000   0.000   0.013   0.000  -0.000   0.000   0.000   0.002   0.000   0.000  -0.135   0.016  -0.000  -0.022  -0.000  -0.000
 -0.001   0.007  -0.001   0.002   0.008   0.000   0.017   0.000  -0.000   0.002  -0.002  -0.000   0.209   0.001   0.000  -0.013
  0.001   0.000   0.053   0.000   0.001  -0.000  -0.000   0.022  -0.000  -0.000   0.131  -0.022   0.001   0.127   0.001  -0.000
  0.006   0.002  -0.003   0.009  -0.001   0.003  -0.000   0.001   0.017   0.000  -0.003  -0.000   0.000   0.001   0.209   0.000
  0.001  -0.009  -0.000  -0.000  -0.001  -0.000  -0.001  -0.000   0.000  -0.000   0.000  -0.000  -0.013  -0.000   0.000   0.001
 -0.000   0.000  -0.014   0.001  -0.000   0.000  -0.000  -0.001  -0.000   0.000  -0.019   0.002  -0.000  -0.009  -0.000   0.000
 -0.000  -0.000  -0.000  -0.009   0.001  -0.000   0.000  -0.000  -0.001  -0.000   0.000  -0.000   0.000  -0.000  -0.013  -0.000


------------------------ aborting loop because EDIFF is reached ----------------------------------------


    CHARGE:  cpu time      0.0563: real time      0.0567
    FORLOC:  cpu time      0.0024: real time      0.0024
    FORNL :  cpu time      0.1562: real time      0.1576
    STRESS:  cpu time      1.5494: real time      1.5616
    FORCOR:  cpu time      0.0184: real time      0.0186
    FORHAR:  cpu time      0.0047: real time      0.0048
    MIXING:  cpu time      0.0008: real time      0.0008
    OFIELD:  cpu time      0.0000: real time      0.0000

  FORCE on cell =-STRESS in cart. coord.  units (eV):
  Direction    XX          YY          ZZ          XY          YZ          ZX
  --------------------------------------------------------------------------------------
  Alpha Z   154.47939   154.47939   154.47939
  Ewald  141385.37320141385.37320************    -0.00000    -0.00000    -0.00000
  Hartree145558.90116145558.90116************     0.00000    -0.00000    -0.00000
  E(xc)    -814.50310  -814.50297  -814.89795    -0.00011     0.00000     0.00000
  Local  ************************291182.36740     0.00208    -0.00000    -0.00000
  n-local  -272.28066  -283.98469  -292.36548    -6.57967    -0.04499    -0.02835
  augment  1142.08056  1142.08267  1143.33968    -0.00183     0.00001     0.00001
  Kinetic  1267.78886  1270.54210  1248.53400     2.07351    -0.96781     1.22139
  Fock        0.00000     0.00000     0.00000     0.00000     0.00000     0.00000
  -------------------------------------------------------------------------------------
  Total      -1.54743    -1.54743    -1.73844    -0.00000    -0.00000    -0.00000
  in kB      -3.20512    -3.20512    -3.60077    -0.00000    -0.00000    -0.00000
  external pressure =       -3.34 kB  Pullay stress =        0.00 kB


 VOLUME and BASIS-vectors are now :
 -----------------------------------------------------------------------------
  energy-cutoff  :      600.00
  volume of cell :      773.53
      direct lattice vectors                 reciprocal lattice vectors
     5.112382028  0.000000000  0.000000000     0.195603536 -0.112931754  0.000000000
     2.556191014  4.427452710  0.000000000     0.000000000  0.225863508  0.000000000
     0.000000000  0.000000000 34.174242446     0.000000000  0.000000000  0.029261804

  length of vectors
     5.112382028  5.112382028 34.174242446     0.225863508  0.225863508  0.029261804


 FORCES acting on ions
    electron-ion (+dipol)            ewald-force                    non-local-force                 convergence-correction
 -----------------------------------------------------------------------------------------------
   -.356E+00 -.206E+00 0.341E+04   0.133E+00 0.766E-01 -.341E+04   0.206E+00 0.119E+00 -.204E+01   -.391E-04 -.226E-04 -.112E-01
   0.356E+00 -.206E+00 0.341E+04   -.133E+00 0.766E-01 -.341E+04   -.206E+00 0.119E+00 -.204E+01   0.391E-04 -.226E-04 -.112E-01
   0.264E-05 0.411E+00 0.341E+04   0.310E-11 -.153E+00 -.341E+04   -.465E-17 -.238E+00 -.204E+01   0.236E-09 0.452E-04 -.112E-01
   0.257E-05 0.148E-05 0.341E+04   0.315E-11 0.163E-11 -.341E+04   0.584E-17 0.230E-17 -.258E+01   0.188E-10 0.109E-10 -.107E-01
   -.243E-05 -.344E+01 0.322E+03   -.453E-11 0.296E+01 -.321E+03   -.789E-17 0.384E+00 -.421E+00   0.396E-08 0.122E-03 -.216E-01
   -.228E-05 -.131E-05 0.318E+03   -.475E-11 -.279E-11 -.318E+03   0.514E-17 -.583E-18 0.569E+00   0.341E-10 0.197E-10 -.220E-01
   0.298E+01 0.172E+01 0.322E+03   -.257E+01 -.148E+01 -.321E+03   -.332E+00 -.192E+00 -.421E+00   -.106E-03 -.610E-04 -.216E-01
   -.298E+01 0.172E+01 0.322E+03   0.257E+01 -.148E+01 -.321E+03   0.332E+00 -.192E+00 -.421E+00   0.106E-03 -.610E-04 -.216E-01
   0.566E-06 0.327E-06 -.265E+04   0.145E-11 0.111E-11 0.265E+04   -.468E-17 -.269E-17 0.178E+01   -.262E-09 -.151E-09 -.179E-01
   0.256E-06 0.224E-01 -.281E+04   0.150E-11 0.111E-11 0.280E+04   -.145E-16 0.200E-02 0.346E+01   0.737E-09 -.380E-03 -.653E-02
   0.194E-01 -.112E-01 -.281E+04   0.148E-11 0.110E-11 0.280E+04   0.173E-02 -.100E-02 0.346E+01   -.329E-03 0.190E-03 -.653E-02
   -.194E-01 -.112E-01 -.281E+04   0.152E-11 0.111E-11 0.280E+04   -.173E-02 -.100E-02 0.346E+01   0.329E-03 0.190E-03 -.653E-02
   -.882E-05 -.509E-05 -.245E+04   -.168E-13 -.164E-13 0.251E+04   -.377E-19 0.364E-19 -.599E+02   0.390E-10 0.225E-10 0.320E-02
   0.195E-05 0.112E-05 -.138E+04   0.508E-14 0.253E-15 0.137E+04   -.604E-19 0.114E-18 0.183E+02   0.546E-11 0.315E-11 -.621E-03
 -----------------------------------------------------------------------------------------------
   -.445E-05 -.257E-05 0.390E+02   -.113E-12 0.143E-13 0.114E-11   -.111E-15 -.137E-16 -.388E+02   -.900E-09 -.520E-09 -.166E+00
 
 
 POSITION                                       TOTAL-FORCE (eV/Angst)
 -----------------------------------------------------------------------------------
      1.27810      0.73791     15.00000        -0.017771     -0.010260      0.043271
      3.83429      0.73791     15.00000         0.017771     -0.010260      0.043271
      2.55619      2.95164     15.00000         0.000000      0.020520      0.043271
      5.11238      2.95164     15.00000         0.000000     -0.000000      0.126284
      5.11238      1.47582     17.08712         0.000000     -0.097061      0.026180
      2.55619      1.47582     17.08712         0.000000     -0.000000      0.106301
      6.39048      3.68954     17.08712         0.084057      0.048530      0.026180
      3.83429      3.68954     17.08712        -0.084057      0.048530      0.026180
      0.00000      0.00000     19.17424         0.000000     -0.000000      0.198131
      2.55619      0.00000     19.17424         0.000000      0.024050     -0.196338
      1.27810      2.21373     19.17424         0.020828     -0.012025     -0.196338
      3.83429      2.21373     19.17424        -0.020828     -0.012025     -0.196338
      0.00000      0.00000     22.17961         0.000000     -0.000000     -0.116963
      0.00000      0.00000     21.01876         0.000000     -0.000000      0.066910
 -----------------------------------------------------------------------------------
    total drift:                               -0.000004     -0.000003     -0.000147


--------------------------------------------------------------------------------------------------------



  FREE ENERGIE OF THE ION-ELECTRON SYSTEM (eV)
  ---------------------------------------------------
  free  energy   TOTEN  =       -56.38985408 eV

  energy  without entropy=      -56.36555550  energy(sigma->0) =      -56.37770479
 
 d Force =-0.1157066E-03[-0.473E-03, 0.241E-03]  d Energy =-0.1213624E-03 0.566E-05
 d Force = 0.2670058E+02[ 0.267E+02, 0.267E+02]  d Ewald  = 0.2670058E+02 0.411E-05


--------------------------------------------------------------------------------------------------------


    POTLOK:  cpu time      0.0217: real time      0.0219


--------------------------------------------------------------------------------------------------------




--------------------------------------------------------------------------------------------------------


    WAVPRE:  cpu time      0.0060: real time      0.0230
    FEWALD:  cpu time      0.0004: real time      0.0004
    ORTHCH:  cpu time      0.1497: real time      0.1515
     LOOP+:  cpu time     14.4306: real time     14.5990


--------------------------------------- Iteration      8(   1)  ---------------------------------------


    POTLOK:  cpu time      0.0254: real time      0.0258
    SETDIJ:  cpu time      0.0014: real time      0.0014
     EDDAV:  cpu time      1.3109: real time      1.3228
       DOS:  cpu time      0.0003: real time      0.0003
    CHARGE:  cpu time      0.0558: real time      0.0561
    MIXING:  cpu time      0.0008: real time      0.0009
    --------------------------------------------
      LOOP:  cpu time      1.3947: real time      1.4074

 eigenvalue-minimisations  :   960
 total energy-change (2. order) :-0.2240938E-04  (-0.1343832E-01)
 number of electron     142.0000062 magnetization 
 augmentation part       84.9182206 magnetization 

 Broyden mixing:
  rms(total) = 0.10354E-01    rms(broyden)= 0.10343E-01
  rms(prec ) = 0.10429E-01
  weight for this iteration     100.00

 Free energy of the ion-electron system (eV)
  ---------------------------------------------------
  alpha Z        PSCENC =       154.47939101
  Ewald energy   TEWEN  =    132675.89081893
  -Hartree energ DENC   =   -148624.60853719
  -exchange      EXHF   =         0.00000000
  -V(xc)+E(xc)   XCENC  =       574.85848510
  PAW double counting   =     16505.12150646   -17800.00929847
  entropy T*S    EENTRO =        -0.02422975
  eigenvalues    EBANDS =      -813.33980002
  atomic energy  EATOM  =     17271.24178720
  Solvation  Ecorr_sol  =         0.00000000
  ---------------------------------------------------
  free energy    TOTEN  =       -56.38987673 eV

  energy without entropy =      -56.36564698  energy(sigma->0) =      -56.37776186


--------------------------------------------------------------------------------------------------------




--------------------------------------- Iteration      8(   2)  ---------------------------------------


    POTLOK:  cpu time      0.0238: real time      0.0244
    SETDIJ:  cpu time      0.0015: real time      0.0015
     EDDAV:  cpu time      1.7320: real time      1.7468
       DOS:  cpu time      0.0003: real time      0.0003
    CHARGE:  cpu time      0.0578: real time      0.0582
    MIXING:  cpu time      0.0008: real time      0.0008
    --------------------------------------------
      LOOP:  cpu time      1.8163: real time      1.8320

 eigenvalue-minimisations  :  1216
 total energy-change (2. order) :-0.1472435E-03  (-0.1972060E-03)
 number of electron     142.0000062 magnetization 
 augmentation part       84.9207245 magnetization 

 Broyden mixing:
  rms(total) = 0.61474E-02    rms(broyden)= 0.61459E-02
  rms(prec ) = 0.62616E-02
  weight for this iteration     100.00

 eigenvalues of (default mixing * dielectric matrix)
  average eigenvalue GAMMA=   0.9646
  0.9646

 Free energy of the ion-electron system (eV)
  ---------------------------------------------------
  alpha Z        PSCENC =       154.47939101
  Ewald energy   TEWEN  =    132675.89081893
  -Hartree energ DENC   =   -148624.49067246
  -exchange      EXHF   =         0.00000000
  -V(xc)+E(xc)   XCENC  =       574.85829550
  PAW double counting   =     16506.90320009   -17801.77800878
  entropy T*S    EENTRO =        -0.02424036
  eigenvalues    EBANDS =      -813.47059512
  atomic energy  EATOM  =     17271.24178720
  Solvation  Ecorr_sol  =         0.00000000
  ---------------------------------------------------
  free energy    TOTEN  =       -56.39002398 eV

  energy without entropy =      -56.36578362  energy(sigma->0) =      -56.37790380


--------------------------------------------------------------------------------------------------------




--------------------------------------- Iteration      8(   3)  ---------------------------------------


    POTLOK:  cpu time      0.0202: real time      0.0206
    SETDIJ:  cpu time      0.0015: real time      0.0015
     EDDAV:  cpu time      1.4419: real time      1.4541
       DOS:  cpu time      0.0003: real time      0.0003
    CHARGE:  cpu time      0.0552: real time      0.0556
    MIXING:  cpu time      0.0006: real time      0.0006
    --------------------------------------------
      LOOP:  cpu time      1.5197: real time      1.5327

 eigenvalue-minimisations  :   992
 total energy-change (2. order) :-0.1945196E-04  (-0.3627350E-04)
 number of electron     142.0000062 magnetization 
 augmentation part       84.9178832 magnetization 

 Broyden mixing:
  rms(total) = 0.64260E-02    rms(broyden)= 0.64256E-02
  rms(prec ) = 0.65840E-02
  weight for this iteration     100.00

 eigenvalues of (default mixing * dielectric matrix)
  average eigenvalue GAMMA=   0.9718
  1.5434  0.4003

 Free energy of the ion-electron system (eV)
  ---------------------------------------------------
  alpha Z        PSCENC =       154.47939101
  Ewald energy   TEWEN  =    132675.89081893
  -Hartree energ DENC   =   -148624.70426460
  -exchange      EXHF   =         0.00000000
  -V(xc)+E(xc)   XCENC  =       574.86049231
  PAW double counting   =     16507.51418228   -17802.42420363
  entropy T*S    EENTRO =        -0.02424071
  eigenvalues    EBANDS =      -813.22400622
  atomic energy  EATOM  =     17271.24178720
  Solvation  Ecorr_sol  =         0.00000000
  ---------------------------------------------------
  free energy    TOTEN  =       -56.39004343 eV

  energy without entropy =      -56.36580272  energy(sigma->0) =      -56.37792307


--------------------------------------------------------------------------------------------------------




--------------------------------------- Iteration      8(   4)  ---------------------------------------


    POTLOK:  cpu time      0.0190: real time      0.0193
    SETDIJ:  cpu time      0.0014: real time      0.0014
     EDDAV:  cpu time      1.4169: real time      1.4294
       DOS:  cpu time      0.0003: real time      0.0003
    CHARGE:  cpu time      0.0555: real time      0.0559
    MIXING:  cpu time      0.0008: real time      0.0008
    --------------------------------------------
      LOOP:  cpu time      1.4939: real time      1.5071

 eigenvalue-minimisations  :  1088
 total energy-change (2. order) : 0.3477244E-04  (-0.1590369E-04)
 number of electron     142.0000062 magnetization 
 augmentation part       84.9184738 magnetization 

 Broyden mixing:
  rms(total) = 0.21000E-02    rms(broyden)= 0.20998E-02
  rms(prec ) = 0.21313E-02
  weight for this iteration     100.00

 eigenvalues of (default mixing * dielectric matrix)
  average eigenvalue GAMMA=   1.1622
  2.2275  0.8824  0.3766

 Free energy of the ion-electron system (eV)
  ---------------------------------------------------
  alpha Z        PSCENC =       154.47939101
  Ewald energy   TEWEN  =    132675.89081893
  -Hartree energ DENC   =   -148624.72146454
  -exchange      EXHF   =         0.00000000
  -V(xc)+E(xc)   XCENC  =       574.85980865
  PAW double counting   =     16507.86010581   -17802.76853681
  entropy T*S    EENTRO =        -0.02424050
  eigenvalues    EBANDS =      -813.20767841
  atomic energy  EATOM  =     17271.24178720
  Solvation  Ecorr_sol  =         0.00000000
  ---------------------------------------------------
  free energy    TOTEN  =       -56.39000866 eV

  energy without entropy =      -56.36576815  energy(sigma->0) =      -56.37788840


--------------------------------------------------------------------------------------------------------




--------------------------------------- Iteration      8(   5)  ---------------------------------------


    POTLOK:  cpu time      0.0195: real time      0.0199
    SETDIJ:  cpu time      0.0014: real time      0.0014
     EDDAV:  cpu time      1.7256: real time      1.7405
       DOS:  cpu time      0.0003: real time      0.0003
    CHARGE:  cpu time      0.0551: real time      0.0554
    MIXING:  cpu time      0.0009: real time      0.0009
    --------------------------------------------
      LOOP:  cpu time      1.8027: real time      1.8185

 eigenvalue-minimisations  :  1376
 total energy-change (2. order) :-0.6358139E-05  (-0.3458433E-05)
 number of electron     142.0000062 magnetization 
 augmentation part       84.9200946 magnetization 

 Broyden mixing:
  rms(total) = 0.10699E-02    rms(broyden)= 0.10698E-02
  rms(prec ) = 0.11034E-02
  weight for this iteration     100.00

 eigenvalues of (default mixing * dielectric matrix)
  average eigenvalue GAMMA=   1.0982
  2.4481  1.0095  0.5621  0.3733

 Free energy of the ion-electron system (eV)
  ---------------------------------------------------
  alpha Z        PSCENC =       154.47939101
  Ewald energy   TEWEN  =    132675.89081893
  -Hartree energ DENC   =   -148624.67041770
  -exchange      EXHF   =         0.00000000
  -V(xc)+E(xc)   XCENC  =       574.85813798
  PAW double counting   =     16508.10422868   -17803.00037104
  entropy T*S    EENTRO =        -0.02423716
  eigenvalues    EBANDS =      -813.26935292
  atomic energy  EATOM  =     17271.24178720
  Solvation  Ecorr_sol  =         0.00000000
  ---------------------------------------------------
  free energy    TOTEN  =       -56.39001501 eV

  energy without entropy =      -56.36577786  energy(sigma->0) =      -56.37789643


--------------------------------------------------------------------------------------------------------




--------------------------------------- Iteration      8(   6)  ---------------------------------------


    POTLOK:  cpu time      0.0199: real time      0.0203
    SETDIJ:  cpu time      0.0015: real time      0.0015
     EDDAV:  cpu time      1.4827: real time      1.4955
       DOS:  cpu time      0.0003: real time      0.0003
    CHARGE:  cpu time      0.0570: real time      0.0574
    MIXING:  cpu time      0.0008: real time      0.0008
    --------------------------------------------
      LOOP:  cpu time      1.5622: real time      1.5758

 eigenvalue-minimisations  :  1088
 total energy-change (2. order) :-0.2469897E-06  (-0.1275821E-05)
 number of electron     142.0000062 magnetization 
 augmentation part       84.9191184 magnetization 

 Broyden mixing:
  rms(total) = 0.62622E-03    rms(broyden)= 0.62618E-03
  rms(prec ) = 0.64657E-03
  weight for this iteration     100.00

 eigenvalues of (default mixing * dielectric matrix)
  average eigenvalue GAMMA=   1.0074
  2.4874  1.0815  0.6876  0.3668  0.4135

 Free energy of the ion-electron system (eV)
  ---------------------------------------------------
  alpha Z        PSCENC =       154.47939101
  Ewald energy   TEWEN  =    132675.89081893
  -Hartree energ DENC   =   -148624.70962275
  -exchange      EXHF   =         0.00000000
  -V(xc)+E(xc)   XCENC  =       574.85915958
  PAW double counting   =     16508.21297705   -17803.11913381
  entropy T*S    EENTRO =        -0.02424606
  eigenvalues    EBANDS =      -813.22114642
  atomic energy  EATOM  =     17271.24178720
  Solvation  Ecorr_sol  =         0.00000000
  ---------------------------------------------------
  free energy    TOTEN  =       -56.39001526 eV

  energy without entropy =      -56.36576920  energy(sigma->0) =      -56.37789223


--------------------------------------------------------------------------------------------------------




--------------------------------------- Iteration      8(   7)  ---------------------------------------


    POTLOK:  cpu time      0.0198: real time      0.0202
    SETDIJ:  cpu time      0.0015: real time      0.0016
     EDDAV:  cpu time      1.3181: real time      1.3294
       DOS:  cpu time      0.0003: real time      0.0003
    --------------------------------------------
      LOOP:  cpu time      1.3396: real time      1.3514

 eigenvalue-minimisations  :   928
 total energy-change (2. order) : 0.4224785E-06  (-0.2928578E-06)
 number of electron     142.0000062 magnetization 
 augmentation part       84.9191184 magnetization 

 Free energy of the ion-electron system (eV)
  ---------------------------------------------------
  alpha Z        PSCENC =       154.47939101
  Ewald energy   TEWEN  =    132675.89081893
  -Hartree energ DENC   =   -148624.71560187
  -exchange      EXHF   =         0.00000000
  -V(xc)+E(xc)   XCENC  =       574.85908302
  PAW double counting   =     16508.22599355   -17803.13316107
  entropy T*S    EENTRO =        -0.02423822
  eigenvalues    EBANDS =      -813.21408739
  atomic energy  EATOM  =     17271.24178720
  Solvation  Ecorr_sol  =         0.00000000
  ---------------------------------------------------
  free energy    TOTEN  =       -56.39001484 eV

  energy without entropy =      -56.36577662  energy(sigma->0) =      -56.37789573


--------------------------------------------------------------------------------------------------------




 average (electrostatic) potential at core
  the test charge radii are     0.9430  0.7215  0.6991
  (the norm of the test charge is              1.0000)
       1 -73.3196       2 -73.3196       3 -73.3196       4 -73.3944       5 -73.5485
       6 -73.5890       7 -73.5485       8 -73.5485       9 -74.3825      10 -73.2798
      11 -73.2798      12 -73.2798      13 -80.8326      14 -59.9382
 
 
 
 E-fermi :  -2.3567     XC(G=0):  -3.1708     alpha+bet : -2.6859

 Fermi energy:        -2.3567481758

 k-point     1 :       0.0000    0.0000    0.0000
  band No.  band energies     occupation 
      1     -26.5916      2.00000
      2     -12.2832      2.00000
      3     -10.8845      2.00000
      4      -9.7585      2.00000
      5      -9.3282      2.00000
      6      -9.3282      2.00000
      7      -8.5945      2.00000
      8      -7.4988      2.00000
      9      -7.0424      2.00000
     10      -7.0424      2.00000
     11      -6.9516      2.00000
     12      -6.9020      2.00000
     13      -6.9020      2.00000
     14      -6.7438      2.00000
     15      -6.5616      2.00000
     16      -6.5616      2.00000
     17      -6.4499      2.00000
     18      -6.4464      2.00000
     19      -6.4464      2.00000
     20      -6.3479      2.00000
     21      -6.0524      2.00000
     22      -6.0524      2.00000
     23      -5.6936      2.00000
     24      -5.4576      2.00000
     25      -5.4576      2.00000
     26      -5.4154      2.00000
     27      -5.3081      2.00000
     28      -5.2273      2.00000
     29      -5.2273      2.00000
     30      -5.1807      2.00000
     31      -5.1807      2.00000
     32      -5.1575      2.00000
     33      -5.0905      2.00000
     34      -5.0905      2.00000
     35      -5.0037      2.00000
     36      -4.9810      2.00000
     37      -4.9810      2.00000
     38      -4.9056      2.00000
     39      -4.8361      2.00000
     40      -4.8361      2.00000
     41      -4.6992      2.00000
     42      -4.6992      2.00000
     43      -4.4185      2.00000
     44      -4.4185      2.00000
     45      -4.4004      2.00000
     46      -4.4004      2.00000
     47      -4.4003      2.00000
     48      -4.3320      2.00000
     49      -4.1621      2.00000
     50      -4.1621      2.00000
     51      -4.0649      2.00000
     52      -4.0171      2.00000
     53      -4.0171      2.00000
     54      -3.9460      2.00000
     55      -3.9460      2.00000
     56      -3.9398      2.00000
     57      -3.9084      2.00000
     58      -3.9084      2.00000
     59      -3.8778      2.00000
     60      -3.8778      2.00000
     61      -3.8389      2.00000
     62      -3.8213      2.00000
     63      -3.8213      2.00000
     64      -3.6719      2.00000
     65      -3.6719      2.00000
     66      -3.6498      2.00000
     67      -3.5978      2.00000
     68      -3.2257      2.00000
     69      -2.5352      1.99731
     70      -2.5352      1.99731
     71      -2.2841      0.12724
     72      -1.5465      0.00000
     73      -1.5465      0.00000
     74      -1.2997      0.00000
     75      -1.1429      0.00000
     76      -0.8328      0.00000
     77      -0.8328      0.00000
     78      -0.7588      0.00000
     79       0.8327      0.00000
     80       0.8327      0.00000
     81       1.6221      0.00000
     82       2.1863      0.00000
     83       2.1999      0.00000
     84       2.1999      0.00000
     85       2.3481      0.00000
     86       2.5697      0.00000
     87       2.8975      0.00000
     88       3.0418      0.00000
     89       3.1162      0.00000
     90       3.1162      0.00000
     91       3.6991      0.00000
     92       3.7873      0.00000
     93       3.9430      0.00000
     94       4.1775      0.00000
     95       4.1775      0.00000
     96       4.9242      0.00000

 k-point     2 :       0.2000    0.0000    0.0000
  band No.  band energies     occupation 
      1     -26.5913      2.00000
      2     -12.2491      2.00000
      3     -10.6131      2.00000
      4      -9.6622      2.00000
      5      -9.3564      2.00000
      6      -9.3346      2.00000
      7      -8.3899      2.00000
      8      -7.3096      2.00000
      9      -7.2717      2.00000
     10      -6.9788      2.00000
     11      -6.9161      2.00000
     12      -6.8604      2.00000
     13      -6.7815      2.00000
     14      -6.6634      2.00000
     15      -6.4847      2.00000
     16      -6.4608      2.00000
     17      -6.4045      2.00000
     18      -6.3344      2.00000
     19      -6.3164      2.00000
     20      -6.2286      2.00000
     21      -6.0207      2.00000
     22      -6.0037      2.00000
     23      -5.6911      2.00000
     24      -5.4930      2.00000
     25      -5.4321      2.00000
     26      -5.4239      2.00000
     27      -5.3812      2.00000
     28      -5.3024      2.00000
     29      -5.2742      2.00000
     30      -5.2155      2.00000
     31      -5.2067      2.00000
     32      -5.1288      2.00000
     33      -5.1278      2.00000
     34      -5.0920      2.00000
     35      -5.0561      2.00000
     36      -5.0310      2.00000
     37      -5.0002      2.00000
     38      -4.9514      2.00000
     39      -4.9290      2.00000
     40      -4.8838      2.00000
     41      -4.7887      2.00000
     42      -4.7168      2.00000
     43      -4.5590      2.00000
     44      -4.5292      2.00000
     45      -4.4954      2.00000
     46      -4.4541      2.00000
     47      -4.4270      2.00000
     48      -4.3662      2.00000
     49      -4.3523      2.00000
     50      -4.2715      2.00000
     51      -4.2354      2.00000
     52      -4.1763      2.00000
     53      -4.1603      2.00000
     54      -4.0845      2.00000
     55      -4.0587      2.00000
     56      -4.0429      2.00000
     57      -4.0327      2.00000
     58      -4.0019      2.00000
     59      -4.0018      2.00000
     60      -3.9467      2.00000
     61      -3.9306      2.00000
     62      -3.9153      2.00000
     63      -3.8833      2.00000
     64      -3.8451      2.00000
     65      -3.8280      2.00000
     66      -3.7858      2.00000
     67      -3.7468      2.00000
     68      -3.6617      2.00000
     69      -2.9994      2.00000
     70      -2.5519      1.99855
     71      -2.4380      1.90602
     72      -2.3656      1.16251
     73      -1.6407      0.00000
     74      -1.5140      0.00000
     75      -0.9037      0.00000
     76      -0.2355      0.00000
     77      -0.1930      0.00000
     78       0.1975      0.00000
     79       1.1038      0.00000
     80       1.1138      0.00000
     81       1.9356      0.00000
     82       2.4989      0.00000
     83       2.6604      0.00000
     84       2.6814      0.00000
     85       2.8737      0.00000
     86       2.9928      0.00000
     87       3.2078      0.00000
     88       3.2206      0.00000
     89       3.3134      0.00000
     90       3.4505      0.00000
     91       4.0192      0.00000
     92       4.1347      0.00000
     93       4.2764      0.00000
     94       4.6597      0.00000
     95       4.7318      0.00000
     96       5.2407      0.00000

 k-point     3 :       0.4000    0.0000    0.0000
  band No.  band energies     occupation 
      1     -26.5908      2.00000
      2     -12.2003      2.00000
      3      -9.9542      2.00000
      4      -9.4392      2.00000
      5      -9.3451      2.00000
      6      -9.3401      2.00000
      7      -8.3096      2.00000
      8      -7.7448      2.00000
      9      -7.0495      2.00000
     10      -6.8341      2.00000
     11      -6.7560      2.00000
     12      -6.7187      2.00000
     13      -6.5280      2.00000
     14      -6.4678      2.00000
     15      -6.3749      2.00000
     16      -6.2223      2.00000
     17      -6.1962      2.00000
     18      -6.1405      2.00000
     19      -6.1403      2.00000
     20      -5.9799      2.00000
     21      -5.8850      2.00000
     22      -5.8592      2.00000
     23      -5.7826      2.00000
     24      -5.6850      2.00000
     25      -5.6367      2.00000
     26      -5.6080      2.00000
     27      -5.5509      2.00000
     28      -5.5024      2.00000
     29      -5.3849      2.00000
     30      -5.3785      2.00000
     31      -5.3379      2.00000
     32      -5.2324      2.00000
     33      -5.1922      2.00000
     34      -5.1357      2.00000
     35      -5.0819      2.00000
     36      -5.0291      2.00000
     37      -4.9943      2.00000
     38      -4.9816      2.00000
     39      -4.9343      2.00000
     40      -4.9061      2.00000
     41      -4.8891      2.00000
     42      -4.8385      2.00000
     43      -4.8363      2.00000
     44      -4.8159      2.00000
     45      -4.7969      2.00000
     46      -4.7526      2.00000
     47      -4.6219      2.00000
     48      -4.5826      2.00000
     49      -4.5572      2.00000
     50      -4.5299      2.00000
     51      -4.4687      2.00000
     52      -4.4327      2.00000
     53      -4.3653      2.00000
     54      -4.3286      2.00000
     55      -4.3282      2.00000
     56      -4.3075      2.00000
     57      -4.1933      2.00000
     58      -4.1782      2.00000
     59      -4.1618      2.00000
     60      -4.1404      2.00000
     61      -4.1005      2.00000
     62      -4.0593      2.00000
     63      -3.9497      2.00000
     64      -3.9447      2.00000
     65      -3.9043      2.00000
     66      -3.8742      2.00000
     67      -3.8510      2.00000
     68      -3.7825      2.00000
     69      -3.5001      2.00000
     70      -2.4299      1.87516
     71      -2.3758      1.33882
     72      -2.2449      0.03124
     73      -1.5626      0.00000
     74      -1.3984      0.00000
     75      -1.0576      0.00000
     76      -0.0407      0.00000
     77       0.0432      0.00000
     78       0.6595      0.00000
     79       1.3508      0.00000
     80       1.9152      0.00000
     81       2.4760      0.00000
     82       2.8802      0.00000
     83       3.4317      0.00000
     84       3.6191      0.00000
     85       3.6706      0.00000
     86       3.7952      0.00000
     87       4.1175      0.00000
     88       4.1402      0.00000
     89       4.2647      0.00000
     90       4.6051      0.00000
     91       4.9223      0.00000
     92       4.9659      0.00000
     93       5.0874      0.00000
     94       5.1994      0.00000
     95       5.3258      0.00000
     96       5.4976      0.00000

 k-point     4 :       0.4000    0.2000    0.0000
  band No.  band energies     occupation 
      1     -26.5909      2.00000
      2     -12.2094      2.00000
      3     -10.1275      2.00000
      4      -9.4842      2.00000
      5      -9.3870      2.00000
      6      -9.3523      2.00000
      7      -7.9685      2.00000
      8      -7.5824      2.00000
      9      -7.5085      2.00000
     10      -6.8936      2.00000
     11      -6.8096      2.00000
     12      -6.7305      2.00000
     13      -6.6063      2.00000
     14      -6.4526      2.00000
     15      -6.3328      2.00000
     16      -6.3000      2.00000
     17      -6.2627      2.00000
     18      -6.1967      2.00000
     19      -6.1560      2.00000
     20      -6.0596      2.00000
     21      -5.9253      2.00000
     22      -5.9051      2.00000
     23      -5.7273      2.00000
     24      -5.6206      2.00000
     25      -5.5956      2.00000
     26      -5.5436      2.00000
     27      -5.5122      2.00000
     28      -5.4391      2.00000
     29      -5.3680      2.00000
     30      -5.3420      2.00000
     31      -5.2872      2.00000
     32      -5.2480      2.00000
     33      -5.1678      2.00000
     34      -5.1397      2.00000
     35      -5.1185      2.00000
     36      -5.0869      2.00000
     37      -5.0299      2.00000
     38      -4.9549      2.00000
     39      -4.9230      2.00000
     40      -4.8951      2.00000
     41      -4.8423      2.00000
     42      -4.7849      2.00000
     43      -4.7622      2.00000
     44      -4.7049      2.00000
     45      -4.6706      2.00000
     46      -4.6518      2.00000
     47      -4.6145      2.00000
     48      -4.5664      2.00000
     49      -4.5505      2.00000
     50      -4.5435      2.00000
     51      -4.4227      2.00000
     52      -4.3763      2.00000
     53      -4.3449      2.00000
     54      -4.3243      2.00000
     55      -4.2436      2.00000
     56      -4.2185      2.00000
     57      -4.1533      2.00000
     58      -4.1136      2.00000
     59      -4.0730      2.00000
     60      -4.0375      2.00000
     61      -3.9999      2.00000
     62      -3.9758      2.00000
     63      -3.9410      2.00000
     64      -3.9290      2.00000
     65      -3.9015      2.00000
     66      -3.8627      2.00000
     67      -3.7930      2.00000
     68      -3.6066      2.00000
     69      -3.5771      2.00000
     70      -3.0503      2.00000
     71      -3.0151      2.00000
     72      -2.1404      0.00066
     73      -1.0789      0.00000
     74      -1.0203      0.00000
     75      -0.5376      0.00000
     76      -0.1648      0.00000
     77       0.4039      0.00000
     78       0.5522      0.00000
     79       0.8077      0.00000
     80       1.3229      0.00000
     81       2.4961      0.00000
     82       2.7192      0.00000
     83       2.9717      0.00000
     84       3.1302      0.00000
     85       3.4828      0.00000
     86       3.6165      0.00000
     87       3.8271      0.00000
     88       3.9215      0.00000
     89       4.3440      0.00000
     90       4.5573      0.00000
     91       4.6614      0.00000
     92       4.7819      0.00000
     93       4.8123      0.00000
     94       5.2577      0.00000
     95       5.3249      0.00000
     96       5.8186      0.00000

 k-point     5 :      -0.4000    0.2000    0.0000
  band No.  band energies     occupation 
      1     -26.5906      2.00000
      2     -12.1874      2.00000
      3      -9.7722      2.00000
      4      -9.4241      2.00000
      5      -9.3687      2.00000
      6      -8.8130      2.00000
      7      -8.6491      2.00000
      8      -7.6472      2.00000
      9      -7.2313      2.00000
     10      -7.1645      2.00000
     11      -6.6590      2.00000
     12      -6.4481      2.00000
     13      -6.3893      2.00000
     14      -6.3381      2.00000
     15      -6.2713      2.00000
     16      -6.1194      2.00000
     17      -6.1078      2.00000
     18      -6.0318      2.00000
     19      -6.0193      2.00000
     20      -5.9443      2.00000
     21      -5.9159      2.00000
     22      -5.8815      2.00000
     23      -5.8054      2.00000
     24      -5.7622      2.00000
     25      -5.7496      2.00000
     26      -5.6966      2.00000
     27      -5.6493      2.00000
     28      -5.5567      2.00000
     29      -5.4411      2.00000
     30      -5.4123      2.00000
     31      -5.3861      2.00000
     32      -5.3330      2.00000
     33      -5.3041      2.00000
     34      -5.2616      2.00000
     35      -5.2186      2.00000
     36      -5.1758      2.00000
     37      -5.1174      2.00000
     38      -5.0611      2.00000
     39      -5.0262      2.00000
     40      -4.9948      2.00000
     41      -4.9332      2.00000
     42      -4.9255      2.00000
     43      -4.9051      2.00000
     44      -4.8340      2.00000
     45      -4.7810      2.00000
     46      -4.6767      2.00000
     47      -4.5948      2.00000
     48      -4.5668      2.00000
     49      -4.5387      2.00000
     50      -4.4814      2.00000
     51      -4.4434      2.00000
     52      -4.4368      2.00000
     53      -4.4069      2.00000
     54      -4.3456      2.00000
     55      -4.2885      2.00000
     56      -4.2690      2.00000
     57      -4.2063      2.00000
     58      -4.1778      2.00000
     59      -4.1186      2.00000
     60      -4.1070      2.00000
     61      -4.0943      2.00000
     62      -4.0224      2.00000
     63      -4.0043      2.00000
     64      -3.9777      2.00000
     65      -3.9443      2.00000
     66      -3.9235      2.00000
     67      -3.8840      2.00000
     68      -3.8635      2.00000
     69      -3.5810      2.00000
     70      -3.4317      2.00000
     71      -2.8717      2.00000
     72      -2.0748      0.00006
     73      -1.3468      0.00000
     74      -0.7225      0.00000
     75      -0.2222      0.00000
     76      -0.0846      0.00000
     77       0.3827      0.00000
     78       1.2765      0.00000
     79       1.3383      0.00000
     80       1.9419      0.00000
     81       2.6296      0.00000
     82       2.7183      0.00000
     83       3.2008      0.00000
     84       3.6534      0.00000
     85       3.7557      0.00000
     86       4.1950      0.00000
     87       4.3262      0.00000
     88       4.3694      0.00000
     89       4.5426      0.00000
     90       4.6993      0.00000
     91       4.7301      0.00000
     92       4.9690      0.00000
     93       5.0367      0.00000
     94       5.0593      0.00000
     95       5.1102      0.00000
     96       5.2167      0.00000


--------------------------------------------------------------------------------------------------------


 soft charge-density along one line, spin component           1
         0         1         2         3         4         5         6         7         8         9
 total charge-density along one line
 
 pseudopotential strength for first ion, spin component:           1
 -9.912  -0.001  -0.004  -0.005  -0.000   0.576   0.001   0.003
 -0.001  -9.873  -0.001   0.003  -0.003   0.001   0.545   0.001
 -0.004  -0.001  -9.866  -0.002  -0.002   0.003   0.001   0.538
 -0.005   0.003  -0.002  -9.870  -0.001   0.004  -0.002   0.002
 -0.000  -0.003  -0.002  -0.001  -9.912   0.000   0.002   0.002
  0.576   0.001   0.003   0.004   0.000   6.584  -0.001  -0.002
  0.001   0.545   0.001  -0.002   0.002  -0.001   6.606  -0.001
  0.003   0.001   0.538   0.002   0.002  -0.002  -0.001   6.612
  0.004  -0.002   0.002   0.542   0.001  -0.003   0.002  -0.001
  0.000   0.002   0.002   0.001   0.575  -0.000  -0.002  -0.001
 -0.001   0.000  -0.008   0.001  -0.000   0.000  -0.000   0.003
 -0.001   0.001  -0.014   0.001  -0.001   0.001  -0.000   0.005
  0.001  -0.010  -0.000   0.000  -0.000  -0.001   0.010   0.000
  0.000   0.001  -0.009   0.001   0.000  -0.000  -0.000   0.009
  0.001   0.000  -0.001  -0.009   0.001  -0.000  -0.000   0.000
  0.001  -0.011  -0.000   0.000  -0.000  -0.001   0.012   0.000
  0.000   0.001  -0.010   0.001   0.000  -0.000  -0.000   0.011
  0.001   0.000  -0.001  -0.011   0.001  -0.000  -0.000   0.000
 total augmentation occupancy for first ion, spin component:           1
  1.908  -0.000  -0.002  -0.005  -0.001  -0.016   0.000   0.000   0.005   0.000  -0.000  -0.000  -0.001   0.001   0.006   0.001
 -0.000   1.924  -0.002   0.001  -0.005  -0.000  -0.032   0.000  -0.000   0.005  -0.004   0.000   0.007   0.000   0.002  -0.009
 -0.002  -0.002   1.926  -0.003  -0.001   0.000   0.000  -0.028   0.001   0.000  -0.004   0.013  -0.001   0.053  -0.003  -0.000
 -0.005   0.001  -0.003   1.925  -0.000   0.005  -0.000   0.001  -0.032  -0.000  -0.008   0.000   0.002   0.000   0.009  -0.000
 -0.001  -0.005  -0.001  -0.000   1.909   0.000   0.005   0.000   0.000  -0.016  -0.000  -0.000   0.008   0.001  -0.001  -0.001
 -0.016  -0.000   0.000   0.005   0.000   0.014  -0.000  -0.000   0.000  -0.000  -0.000   0.000   0.000  -0.000   0.003  -0.000
  0.000  -0.032   0.000  -0.000   0.005  -0.000   0.010  -0.000  -0.000   0.000   0.001   0.000   0.017  -0.000  -0.000  -0.001
  0.000   0.000  -0.028   0.001   0.000  -0.000  -0.000   0.013  -0.000  -0.000  -0.043   0.002   0.000   0.022   0.001  -0.000
  0.005  -0.000   0.001  -0.032   0.000   0.000  -0.000  -0.000   0.010  -0.000   0.001   0.000  -0.000  -0.000   0.017   0.000
  0.000   0.005   0.000  -0.000  -0.016  -0.000   0.000  -0.000  -0.000   0.014  -0.000   0.000   0.002  -0.000   0.000  -0.000
 -0.000  -0.004  -0.004  -0.008  -0.000  -0.000   0.001  -0.043   0.001  -0.000   1.699  -0.135  -0.002   0.131  -0.003   0.000
 -0.000   0.000   0.013   0.000  -0.000   0.000   0.000   0.002   0.000   0.000  -0.135   0.016  -0.000  -0.022  -0.000  -0.000
 -0.001   0.007  -0.001   0.002   0.008   0.000   0.017   0.000  -0.000   0.002  -0.002  -0.000   0.209   0.001   0.000  -0.013
  0.001   0.000   0.053   0.000   0.001  -0.000  -0.000   0.022  -0.000  -0.000   0.131  -0.022   0.001   0.127   0.001  -0.000
  0.006   0.002  -0.003   0.009  -0.001   0.003  -0.000   0.001   0.017   0.000  -0.003  -0.000   0.000   0.001   0.209   0.000
  0.001  -0.009  -0.000  -0.000  -0.001  -0.000  -0.001  -0.000   0.000  -0.000   0.000  -0.000  -0.013  -0.000   0.000   0.001
  0.000   0.000  -0.014   0.001   0.000   0.000  -0.000  -0.001  -0.000   0.000  -0.019   0.002  -0.000  -0.009  -0.000   0.000
 -0.000  -0.000  -0.000  -0.009   0.001  -0.000   0.000  -0.000  -0.001  -0.000   0.000  -0.000   0.000  -0.000  -0.013  -0.000


------------------------ aborting loop because EDIFF is reached ----------------------------------------


    CHARGE:  cpu time      0.0555: real time      0.0562
    FORLOC:  cpu time      0.0021: real time      0.0022
    FORNL :  cpu time      0.1461: real time      0.1475
    STRESS:  cpu time      1.5164: real time      1.5279
    FORCOR:  cpu time      0.0180: real time      0.0181
    FORHAR:  cpu time      0.0047: real time      0.0047
    MIXING:  cpu time      0.0006: real time      0.0006
    OFIELD:  cpu time      0.0000: real time      0.0000

  FORCE on cell =-STRESS in cart. coord.  units (eV):
  Direction    XX          YY          ZZ          XY          YZ          ZX
  --------------------------------------------------------------------------------------
  Alpha Z   154.47939   154.47939   154.47939
  Ewald  141402.54028141402.54028************    -0.00000    -0.00000    -0.00000
  Hartree145576.15269145576.15269************     0.00000    -0.00000    -0.00000
  E(xc)    -814.51807  -814.51794  -814.91288    -0.00011     0.00000     0.00000
  Local  ************************291216.22583     0.00208    -0.00000    -0.00000
  n-local  -272.29457  -283.99123  -292.32565    -6.57316    -0.04460    -0.02866
  augment  1142.09925  1142.10137  1143.30038    -0.00183     0.00001     0.00001
  Kinetic  1267.86945  1270.63130  1248.59719     2.08158    -0.96801     1.22197
  Fock        0.00000     0.00000     0.00000     0.00000     0.00000     0.00000
  -------------------------------------------------------------------------------------
  Total      -1.58087    -1.58087    -1.54872     0.00000     0.00000     0.00000
  in kB      -3.27439    -3.27439    -3.20781     0.00000     0.00000     0.00000
  external pressure =       -3.25 kB  Pullay stress =        0.00 kB


 VOLUME and BASIS-vectors are now :
 -----------------------------------------------------------------------------
  energy-cutoff  :      600.00
  volume of cell :      773.53
      direct lattice vectors                 reciprocal lattice vectors
     5.112382028  0.000000000  0.000000000     0.195603536 -0.112931754  0.000000000
     2.556191014  4.427452710  0.000000000     0.000000000  0.225863508  0.000000000
     0.000000000  0.000000000 34.174242446     0.000000000  0.000000000  0.029261804

  length of vectors
     5.112382028  5.112382028 34.174242446     0.225863508  0.225863508  0.029261804


 FORCES acting on ions
    electron-ion (+dipol)            ewald-force                    non-local-force                 convergence-correction
 -----------------------------------------------------------------------------------------------
   -.359E+00 -.207E+00 0.341E+04   0.134E+00 0.771E-01 -.341E+04   0.207E+00 0.120E+00 -.204E+01   -.180E-03 -.104E-03 -.249E-02
   0.359E+00 -.207E+00 0.341E+04   -.134E+00 0.771E-01 -.341E+04   -.207E+00 0.120E+00 -.204E+01   0.180E-03 -.104E-03 -.249E-02
   0.264E-05 0.414E+00 0.341E+04   0.310E-11 -.154E+00 -.341E+04   0.434E-17 -.239E+00 -.204E+01   0.121E-08 0.208E-03 -.249E-02
   0.256E-05 0.148E-05 0.341E+04   0.315E-11 0.163E-11 -.341E+04   0.351E-17 -.381E-17 -.259E+01   -.948E-10 -.547E-10 -.261E-02
   -.243E-05 -.347E+01 0.322E+03   -.452E-11 0.298E+01 -.322E+03   0.466E-17 0.389E+00 -.425E+00   -.382E-08 -.101E-03 -.122E-01
   -.228E-05 -.132E-05 0.318E+03   -.476E-11 -.280E-11 -.318E+03   0.562E-17 -.587E-17 0.568E+00   -.194E-09 -.112E-09 -.116E-01
   0.300E+01 0.173E+01 0.322E+03   -.258E+01 -.149E+01 -.322E+03   -.337E+00 -.194E+00 -.425E+00   0.873E-04 0.504E-04 -.122E-01
   -.300E+01 0.173E+01 0.322E+03   0.258E+01 -.149E+01 -.322E+03   0.337E+00 -.194E+00 -.425E+00   -.873E-04 0.504E-04 -.122E-01
   0.572E-06 0.330E-06 -.265E+04   0.145E-11 0.111E-11 0.265E+04   -.435E-17 -.111E-17 0.173E+01   0.490E-09 0.283E-09 -.609E-02
   0.256E-06 0.217E-01 -.281E+04   0.149E-11 0.111E-11 0.280E+04   -.118E-17 0.236E-02 0.347E+01   -.198E-08 0.433E-04 -.175E-01
   0.188E-01 -.108E-01 -.281E+04   0.148E-11 0.109E-11 0.280E+04   0.204E-02 -.118E-02 0.347E+01   0.375E-04 -.217E-04 -.175E-01
   -.188E-01 -.108E-01 -.281E+04   0.152E-11 0.111E-11 0.280E+04   -.204E-02 -.118E-02 0.347E+01   -.375E-04 -.217E-04 -.175E-01
   -.892E-05 -.515E-05 -.245E+04   -.243E-14 -.594E-15 0.251E+04   -.534E-19 0.388E-19 -.600E+02   0.524E-10 0.302E-10 -.114E-02
   0.196E-05 0.113E-05 -.138E+04   0.795E-14 0.102E-13 0.137E+04   0.372E-19 -.440E-19 0.182E+02   0.417E-10 0.241E-10 0.772E-04
 -----------------------------------------------------------------------------------------------
   -.454E-05 -.262E-05 0.391E+02   -.113E-12 0.143E-13 0.227E-12   -.162E-19 -.111E-15 -.390E+02   0.293E-09 0.169E-09 -.118E+00
 
 
 POSITION                                       TOTAL-FORCE (eV/Angst)
 -----------------------------------------------------------------------------------
      1.27810      0.73791     15.00000        -0.018148     -0.010478      0.042986
      3.83429      0.73791     15.00000         0.018148     -0.010478      0.042986
      2.55619      2.95164     15.00000        -0.000000      0.020956      0.042986
      5.11238      2.95164     15.00000         0.000000     -0.000000      0.126236
      5.11238      1.47582     17.08712         0.000000     -0.097211      0.025961
      2.55619      1.47582     17.08712        -0.000000     -0.000000      0.107090
      6.39048      3.68954     17.08712         0.084187      0.048606      0.025961
      3.83429      3.68954     17.08712        -0.084187      0.048606      0.025961
      0.00000      0.00000     19.17424        -0.000000     -0.000000      0.152712
      2.55619      0.00000     19.17424         0.000000      0.024072     -0.198109
      1.27810      2.21373     19.17424         0.020847     -0.012036     -0.198109
      3.83429      2.21373     19.17424        -0.020847     -0.012036     -0.198109
      0.00000      0.00000     22.17469        -0.000000     -0.000000     -0.002562
      0.00000      0.00000     21.01484         0.000000     -0.000000      0.004009
 -----------------------------------------------------------------------------------
    total drift:                               -0.000005     -0.000003     -0.000599


--------------------------------------------------------------------------------------------------------



  FREE ENERGIE OF THE ION-ELECTRON SYSTEM (eV)
  ---------------------------------------------------
  free  energy   TOTEN  =       -56.39001484 eV

  energy  without entropy=      -56.36577662  energy(sigma->0) =      -56.37789573
 
 d Force = 0.1548771E-03[-0.311E-05, 0.313E-03]  d Energy = 0.1607530E-03-0.588E-05
 d Force =-0.1767764E+02[-0.177E+02,-0.177E+02]  d Ewald  =-0.1767764E+02-0.119E-05


--------------------------------------------------------------------------------------------------------


    POTLOK:  cpu time      0.0206: real time      0.0208


--------------------------------------------------------------------------------------------------------




--------------------------------------------------------------------------------------------------------


  
 reached required accuracy - stopping structural energy minimisation
 writing wavefunctions
     LOOP+:  cpu time     13.6578: real time     14.7411
    4ORBIT:  cpu time      0.0000: real time      0.0000

 total amount of memory used by VASP MPI-rank0   112955. kBytes
=======================================================================

   base      :      30000. kBytes
   nonl-proj :      61716. kBytes
   fftplans  :       2678. kBytes
   grid      :      12070. kBytes
   one-center:        217. kBytes
   wavefun   :       6274. kBytes
 
  
  
 General timing and accounting informations for this job:
 ========================================================
  
                  Total CPU time used (sec):      138.158
                            User time (sec):      136.149
                          System time (sec):        2.009
                         Elapsed time (sec):      143.865
  
                   Maximum memory used (kb):      253952.
                   Average memory used (kb):          N/A
  
                          Minor page faults:       143702
                          Major page faults:          164
                 Voluntary context switches:         7496
