Cu12 O1 C1
1.0
   5.1123820279787395    0.0                   0.0
   2.5561910139893698    4.427452710080594     0.0000000000000000
   0.0000000000000000    0.0000000000000000   34.174242446240996
Cu O C
12 1 1
Selective dynamics
cartesian
1.278095506994685      0.737908785013432     15.000000000000000   F   F   F
3.834286520984055      0.737908785013432     15.000000000000000   F   F   F
2.556191013989370      2.951635140053729     15.000000000000000   F   F   F
5.112382027978740      2.951635140053729     15.000000000000000   F   F   F
-0.000000000000000      1.475817570026865    17.087121223120498   F   F   F
2.556191013989370      1.475817570026865     17.087121223120498   F   F   F
1.278095506994685      3.689543925067162     17.087121223120498   F   F   F
3.834286520984055      3.689543925067162     17.087121223120498   F   F   F
0.000000000000000      0.000000000000000     19.174242446240996   F   F   F
2.556191013989370      0.000000000000000     19.174242446240996   F   F   F
1.278095506994685      2.213726355040297     19.174242446240996   F   F   F
3.834286520984055      2.213726355040297     19.174242446240996   F   F   F
0.000000000000000      0.000000000000000     22.16422             F   F   T
0.000000000000000      0.000000000000000     21.00455             F   F   T
