 vasp.6.3.2 27Jun22 (build Dec 14 2024 18:09:17) complex                        
  
 executed on             LinuxIFC date 2026.07.04  12:36:54
 running   32 mpi-ranks, with    1 threads/rank
 distrk:  each k-point on   32 cores,    1 groups
 distr:  one band on NCORE=   1 cores,   32 groups


--------------------------------------------------------------------------------------------------------


 INCAR:
   SYSTEM = Cu_H
   ISTART = 0
   ICHARG = 2
   ENCUT = 600
   LH5 = .FALSE.
   IBRION = -1
   GGA = PE
   ISPIN = 2
   MAGMOM = 12*0 1
   IVDW = 12
   ALGO = Normal
   NELM = 200
   EDIFF = 1E-4
   ISMEAR = -1
   SIGMA = 0.027

 POTCAR:    PAW_PBE Cu 22Jun2005                  
 POTCAR:    PAW_PBE H 15Jun2001                   
 POTCAR:    PAW_PBE Cu 22Jun2005                  
   SHA256 =  0e71e558f37a4e8407882b4609ceaae59938afaad9ced71dfe8490308a0ab630 Cu/POTCAR             
   COPYR  = (c) Copyright 22Jun2005 Georg Kresse                                                    
   COPYR  = This file is part of the software VASP. Any use, copying, and all other rights are regul
   COPYR  = If you do not have a valid VASP license, you may not use, copy or distribute this file. 
   VRHFIN =Cu: d10 p1                                                                               
   LEXCH  = PE                                                                                      
   EATOM  =  1390.9808 eV,  102.2342 Ry                                                             
                                                                                                    
   TITEL  = PAW_PBE Cu 22Jun2005                                                                    
   LULTRA =        F    use ultrasoft PP ?                                                          
   IUNSCR =        1    unscreen: 0-lin 1-nonlin 2-no                                               
   RPACOR =    2.000    partial core radius                                                         
   POMASS =   63.546; ZVAL   =   11.000    mass and valenz                                          
   RCORE  =    2.300    outmost cutoff radius                                                       
   RWIGS  =    2.200; RWIGS  =    1.164    wigner-seitz radius (au A)                               
   ENMAX  =  295.446; ENMIN  =  221.585 eV                                                          
   ICORE  =        3    local potential                                                             
   LCOR   =        T    correct aug charges                                                         
   LPAW   =        T    paw PP                                                                      
   EAUG   =  586.980                                                                                
   DEXC   =    0.000                                                                                
   RMAX   =    2.344    core radius for proj-oper                                                   
   RAUG   =    1.300    factor for augmentation sphere                                              
   RDEP   =    2.302    radius for radial grids                                                     
   RDEPT  =    1.771    core radius for aug-charge                                                  
                                                                                                    
   Atomic configuration                                                                             
    9 entries                                                                                       
     n  l   j            E        occ.                                                              
     1  0  0.50     -8850.2468   2.0000                                                             
     2  0  0.50     -1062.3498   2.0000                                                             
     2  1  1.50      -916.8226   6.0000                                                             
     3  0  0.50      -114.6929   2.0000                                                             
     3  1  1.50       -72.1325   6.0000                                                             
     3  2  2.50        -5.0394  10.0000                                                             
     4  0  0.50        -4.6097   1.0000                                                             
     4  1  0.50        -4.0817   0.0000                                                             
     4  3  2.50        -1.3606   0.0000                                                             
   Description                                                                                      
     l       E           TYP  RCUT    TYP  RCUT                                                     
     2     -5.0393973     23  2.200                                                                 
     2     10.8846608     23  2.200                                                                 
     0     -4.6097109     23  2.200                                                                 
     0      8.2520465     23  2.200                                                                 
     1     -2.7211652     23  2.200                                                                 
     1     21.7055443     23  2.200                                                                 
     3      2.7211652     23  2.300                                                                 
  local pseudopotential read in
  partial core-charges read in
  partial kinetic energy density read in
  atomic valenz-charges read in
  non local Contribution for L=           2  read in
    real space projection operators read in
  non local Contribution for L=           2  read in
    real space projection operators read in
  non local Contribution for L=           0  read in
    real space projection operators read in
  non local Contribution for L=           0  read in
    real space projection operators read in
  non local Contribution for L=           1  read in
    real space projection operators read in
  non local Contribution for L=           1  read in
    real space projection operators read in
    PAW grid and wavefunctions read in
 
   number of l-projection  operators is LMAX  =           6
   number of lm-projection operators is LMMAX =          18
 
 POTCAR:    PAW_PBE H 15Jun2001                   
   SHA256 =  030f79b5d3ab3cf0e668861823c8fb652ff669f3e15e46930bd03bfd63a607b6 H/POTCAR              
   COPYR  = (c) Copyright 15Jun2001 Georg Kresse                                                    
   COPYR  = This file is part of the software VASP. Any use, copying, and all other rights are regul
   COPYR  = If you do not have a valid VASP license, you may not use, copy or distribute this file. 
   VRHFIN =H: ultrasoft test                                                                        
   LEXCH  = PE                                                                                      
   EATOM  =    12.4884 eV,    0.9179 Ry                                                             
                                                                                                    
   TITEL  = PAW_PBE H 15Jun2001                                                                     
   LULTRA =        F    use ultrasoft PP ?                                                          
   IUNSCR =        0    unscreen: 0-lin 1-nonlin 2-no                                               
   RPACOR =    0.000    partial core radius                                                         
   POMASS =    1.000; ZVAL   =    1.000    mass and valenz                                          
   RCORE  =    1.100    outmost cutoff radius                                                       
   RWIGS  =    0.700; RWIGS  =    0.370    wigner-seitz radius (au A)                               
   ENMAX  =  250.000; ENMIN  =  200.000 eV                                                          
   RCLOC  =    0.701    cutoff for local pot                                                        
   LCOR   =        T    correct aug charges                                                         
   LPAW   =        T    paw PP                                                                      
   EAUG   =  400.000                                                                                
   RMAX   =    1.123    core radius for proj-oper                                                   
   RAUG   =    1.200    factor for augmentation sphere                                              
   RDEP   =    1.112    radius for radial grids                                                     
   RDEPT  =    0.926    core radius for aug-charge                                                  
                                                                                                    
   Atomic configuration                                                                             
    2 entries                                                                                       
     n  l   j            E        occ.                                                              
     1  0  0.50        -6.4927   1.0000                                                             
     2  1  0.50        -3.4015   0.0000                                                             
   Description                                                                                      
     l       E           TYP  RCUT    TYP  RCUT                                                     
     0     -6.4927494     23  1.100                                                                 
     0      6.8029130     23  1.100                                                                 
     1     -4.0817478     23  1.100                                                                 
  local pseudopotential read in
  atomic valenz-charges read in
  non local Contribution for L=           0  read in
    real space projection operators read in
  non local Contribution for L=           0  read in
    real space projection operators read in
  non local Contribution for L=           1  read in
    real space projection operators read in
    PAW grid and wavefunctions read in
 
   number of l-projection  operators is LMAX  =           3
   number of lm-projection operators is LMMAX =           5
 
  PAW_PBE Cu 22Jun2005                  :
 energy of atom  1       EATOM=-1390.9808
 kinetic energy error for atom=    0.0033 (will be added to EATOM!!)
  PAW_PBE H 15Jun2001                   :
 energy of atom  2       EATOM=  -12.4884
 kinetic energy error for atom=    0.0004 (will be added to EATOM!!)
 
 
 POSCAR: Cu H
  positions in cartesian coordinates
  No initial velocities read in
 exchange correlation table for  LEXCH =        8
   RHO(1)=    0.500       N(1)  =     2000
   RHO(2)=  100.500       N(2)  =     4000
 
 POSCAR: Cu H
  positions in cartesian coordinates
  No initial velocities read in
 
 POSCAR: Cu H
  positions in cartesian coordinates
  No initial velocities read in
 


--------------------------------------------------------------------------------------------------------


 ion  position               nearest neighbor table
   1  0.167  0.167  0.439-   5 2.56   8 2.56   6 2.56   3 2.56   3 2.56   4 2.56   4 2.56   2 2.56
                             2 2.56
   2  0.667  0.167  0.439-   6 2.56   7 2.56   5 2.56   4 2.56   3 2.56   4 2.56   3 2.56   1 2.56
                             1 2.56
   3  0.167  0.667  0.439-   6 2.56   7 2.56   8 2.56   1 2.56   1 2.56   2 2.56   2 2.56   4 2.56
                             4 2.56
   4  0.667  0.667  0.439-   5 2.56   8 2.56   7 2.56   2 2.56   1 2.56   2 2.56   1 2.56   3 2.56
                             3 2.56
   5  0.833  0.333  0.500-   1 2.56   4 2.56  11 2.56   9 2.56  12 2.56   2 2.56   7 2.56   7 2.56
                             8 2.56   8 2.56   6 2.56   6 2.56
   6  0.333  0.333  0.500-   2 2.56   3 2.56  12 2.56  11 2.56  10 2.56   1 2.56   8 2.56   7 2.56
                             8 2.56   7 2.56   5 2.56   5 2.56
   7  0.833  0.833  0.500-   2 2.56   3 2.56   9 2.56  10 2.56  11 2.56   4 2.56   5 2.56   5 2.56
                             6 2.56   6 2.56   8 2.56   8 2.56
   8  0.333  0.833  0.500-   1 2.56   4 2.56  10 2.56   9 2.56  12 2.56   3 2.56   6 2.56   5 2.56
                             6 2.56   5 2.56   7 2.56   7 2.56
   9  0.000  0.000  0.561-  13 1.65   7 2.56   8 2.56   5 2.56  11 2.56  11 2.56  12 2.56  12 2.56
                            10 2.56  10 2.56
  10  0.500  0.000  0.561-  13 1.65   8 2.56   6 2.56   7 2.56  12 2.56  11 2.56  12 2.56  11 2.56
                             9 2.56   9 2.56
  11  0.000  0.500  0.561-   5 2.56   6 2.56   7 2.56   9 2.56   9 2.56  10 2.56  10 2.56  12 2.56
                            12 2.56
  12  0.500  0.500  0.561-   6 2.56   5 2.56   8 2.56  10 2.56   9 2.56  10 2.56   9 2.56  11 2.56
                            11 2.56
  13  0.250  0.000  0.592-   9 1.65  10 1.65
 
  LATTYP: Found a hexagonal cell.
 ALAT       =     5.1123820280
 C/A-ratio  =     6.6846026489
  
  Lattice vectors:
  
 A1 = (  -2.5561910140,  -4.4274527101,   0.0000000000)
 A2 = (   5.1123820280,   0.0000000000,   0.0000000000)
 A3 = (   0.0000000000,   0.0000000000,  34.1742424462)


Analysis of symmetry for initial positions (statically):
=====================================================================
 Subroutine PRICEL returns:
 Original cell was already a primitive cell.
 

 Routine SETGRP: Setting up the symmetry group for a 
 hexagonal supercell.


 Subroutine GETGRP returns: Found  2 space group operations
 (whereof  1 operations were pure point group operations)
 out of a pool of 24 trial point group operations.


The static configuration has the point symmetry C_1 .
 The point group associated with its full space group is C_1h.


Analysis of symmetry for dynamics (positions and initial velocities):
=====================================================================
 Subroutine PRICEL returns:
 Original cell was already a primitive cell.
 

 Routine SETGRP: Setting up the symmetry group for a 
 hexagonal supercell.


 Subroutine GETGRP returns: Found  2 space group operations
 (whereof  1 operations were pure point group operations)
 out of a pool of 24 trial point group operations.


The dynamic configuration has the point symmetry C_1 .
 The point group associated with its full space group is C_1h.


Analysis of constrained symmetry for selective dynamics:
=====================================================================
 Subroutine PRICEL returns:
 Original cell was already a primitive cell.
 

 Routine SETGRP: Setting up the symmetry group for a 
 hexagonal supercell.


 Subroutine GETGRP returns: Found  2 space group operations
 (whereof  1 operations were pure point group operations)
 out of a pool of 24 trial point group operations.


The constrained configuration has the point symmetry C_1 .
 The point group associated with its full space group is C_1h.


Analysis of structural, dynamic, and magnetic symmetry:
=====================================================================
 Subroutine PRICEL returns:
 Original cell was already a primitive cell.
 

 Routine SETGRP: Setting up the symmetry group for a 
 hexagonal supercell.


 Subroutine GETGRP returns: Found  2 space group operations
 (whereof  1 operations were pure point group operations)
 out of a pool of 24 trial point group operations.


The overall configuration has the point symmetry C_1 .
 The point group associated with its full space group is C_1h.


 Subroutine INISYM returns: Found  2 space group operations
 (whereof  1 operations are pure point group operations),
 and found     1 'primitive' translations


----------------------------------------------------------------------------------------

                                     Primitive cell                                     

  volume of cell :     773.5282

  direct lattice vectors                    reciprocal lattice vectors
     5.112382028  0.000000000  0.000000000     0.195603536 -0.112931754  0.000000000
     2.556191014  4.427452710  0.000000000     0.000000000  0.225863508  0.000000000
     0.000000000  0.000000000 34.174242446     0.000000000  0.000000000  0.029261804

  length of vectors
     5.112382028  5.112382028 34.174242446     0.225863508  0.225863508  0.029261804

  position of ions in fractional coordinates (direct lattice)
     0.166666667  0.166666667  0.438927067
     0.666666667  0.166666667  0.438927067
     0.166666667  0.666666667  0.438927067
     0.666666667  0.666666667  0.438927067
     0.833333333  0.333333333  0.500000000
     0.333333333  0.333333333  0.500000000
     0.833333333  0.833333333  0.500000000
     0.333333333  0.833333333  0.500000000
     0.000000000  0.000000000  0.561072933
     0.500000000  0.000000000  0.561072933
     1.000000000  0.500000000  0.561072933
     0.500000000  0.500000000  0.561072933
     0.250000000  0.000000000  0.591728991

  ion indices of the primitive-cell ions
   primitive index   ion index
                 1           1
                 2           2
                 3           3
                 4           4
                 5           5
                 6           6
                 7           7
                 8           8
                 9           9
                10          10
                11          11
                12          12
                13          13

----------------------------------------------------------------------------------------

 
 
 KPOINTS: K-Points                                

Automatic generation of k-mesh.
 Grid dimensions read from file:
 generate k-points for:    5    5    1

 Generating k-lattice:

  Cartesian coordinates                     Fractional coordinates (reciprocal lattice)
     0.039120707 -0.022586351  0.000000000     0.200000000  0.000000000  0.000000000
     0.000000000  0.045172702  0.000000000     0.000000000  0.200000000  0.000000000
     0.000000000  0.000000000  0.029261804     0.000000000  0.000000000  1.000000000

  Length of vectors
     0.045172702  0.045172702  0.029261804

  Shift w.r.t. Gamma in fractional coordinates (k-lattice)
     0.000000000  0.000000000  0.000000000

 
 Subroutine IBZKPT returns following result:
 ===========================================
 
 Found      9 irreducible k-points:
 
 Following reciprocal coordinates:
            Coordinates               Weight
  0.000000  0.000000  0.000000      1.000000
  0.200000  0.000000  0.000000      4.000000
  0.000000  0.200000  0.000000      2.000000
  0.400000  0.000000  0.000000      4.000000
  0.000000  0.400000  0.000000      2.000000
  0.400000  0.200000  0.000000      2.000000
  0.200000  0.400000  0.000000      4.000000
 -0.400000  0.200000  0.000000      4.000000
 -0.200000  0.400000  0.000000      2.000000
 
 Following cartesian coordinates:
            Coordinates               Weight
  0.000000  0.000000  0.000000      1.000000
  0.039121 -0.022586  0.000000      4.000000
  0.000000  0.045173  0.000000      2.000000
  0.078241 -0.045173  0.000000      4.000000
  0.000000  0.090345  0.000000      2.000000
  0.078241  0.000000  0.000000      2.000000
  0.039121  0.067759  0.000000      4.000000
 -0.078241  0.090345  0.000000      4.000000
 -0.039121  0.112932  0.000000      2.000000
 


--------------------------------------------------------------------------------------------------------




 Dimension of arrays:
   k-points           NKPTS =      9   k-points in BZ     NKDIM =      9   number of bands    NBANDS=     96
   number of dos      NEDOS =    301   number of ions     NIONS =     13
   non local maximal  LDIM  =      6   non local SUM 2l+1 LMDIM =     18
   total plane-waves  NPLWV = 215040
   max r-space proj   IRMAX =      1   max aug-charges    IRDMAX=   8251
   dimension x,y,z NGX =    32 NGY =   32 NGZ =  210
   dimension x,y,z NGXF=    64 NGYF=   64 NGZF=  420
   support grid    NGXF=    64 NGYF=   64 NGZF=  420
   ions per type =              12   1
   NGX,Y,Z   is equivalent  to a cutoff of  10.41, 10.41, 10.22 a.u.
   NGXF,Y,Z  is equivalent  to a cutoff of  20.81, 20.81, 20.43 a.u.

 SYSTEM =  Cu_H                                    
 POSCAR =  Cu H                                    

 Startparameter for this run:
   NWRITE =      2    write-flag & timer
   PREC   = normal    normal or accurate (medium, high low for compatibility)
   ISTART =      0    job   : 0-new  1-cont  2-samecut
   ICHARG =      2    charge: 1-file 2-atom 10-const
   ISPIN  =      2    spin polarized calculation?
   LNONCOLLINEAR =      F non collinear calculations
   LSORBIT =      F    spin-orbit coupling
   INIWAV =      1    electr: 0-lowe 1-rand  2-diag
   LASPH  =      F    aspherical Exc in radial PAW
 Electronic Relaxation 1
   ENCUT  =  600.0 eV  44.10 Ry    6.64 a.u.  10.21 10.21 68.25*2*pi/ulx,y,z
   ENINI  =  600.0     initial cutoff
   ENAUG  =  587.0 eV  augmentation charge cutoff
   NELM   =    200;   NELMIN=  2; NELMDL= -5     # of ELM steps 
   EDIFF  = 0.1E-03   stopping-criterion for ELM
   LREAL  =      F    real-space projection
   NLSPLINE    = F    spline interpolate recip. space projectors
   LCOMPAT=      F    compatible to vasp.4.4
   GGA_COMPAT  = T    GGA compatible to vasp.4.4-vasp.4.6
   LMAXPAW     = -100 max onsite density
   LMAXMIX     =    2 max onsite mixed and CHGCAR
   VOSKOWN=      0    Vosko Wilk Nusair interpolation
   ROPT   =    0.00000   0.00000
 Ionic relaxation
   EDIFFG = 0.1E-02   stopping-criterion for IOM
   NSW    =      0    number of steps for IOM
   NBLOCK =      1;   KBLOCK =      1    inner block; outer block 
   IBRION =     -1    ionic relax: 0-MD 1-quasi-New 2-CG
   NFREE  =      0    steps in history (QN), initial steepest desc. (CG)
   ISIF   =      2    stress and relaxation
   IWAVPR =     10    prediction:  0-non 1-charg 2-wave 3-comb
   ISYM   =      2    0-nonsym 1-usesym 2-fastsym
   LCORR  =      T    Harris-Foulkes like correction to forces

   POTIM  = 0.5000    time-step for ionic-motion
   TEIN   =    0.0    initial temperature
   TEBEG  =    0.0;   TEEND  =   0.0 temperature during run
   SMASS  =  -3.00    Nose mass-parameter (am)
   estimated Nose-frequenzy (Omega)   =  0.10E-29 period in steps = 0.13E+47 mass=  -0.597E-27a.u.
   SCALEE = 1.0000    scale energy and forces
   NPACO  =    256;   APACO  = 10.0  distance and # of slots for P.C.
   PSTRESS=    0.0 pullay stress

  Mass of Ions in am
   POMASS =  63.55  1.00
  Ionic Valenz
   ZVAL   =  11.00  1.00
  Atomic Wigner-Seitz radii
   RWIGS  =  -1.00 -1.00
  virtual crystal weights 
   VCA    =   1.00  1.00
   NELECT =     133.0000    total number of electrons
   NUPDOWN=      -1.0000    fix difference up-down

 DOS related values:
   EMIN   =  10.00;   EMAX   =-10.00  energy-range for DOS
   EFERMI =   0.00
   ISMEAR =    -1;   SIGMA  =   0.03  broadening in eV -4-tet -1-fermi 0-gaus

 Electronic relaxation 2 (details)
   IALGO  =     38    algorithm
   LDIAG  =      T    sub-space diagonalisation (order eigenvalues)
   LSUBROT=      F    optimize rotation matrix (better conditioning)
   TURBO    =      0    0=normal 1=particle mesh
   IRESTART =      0    0=no restart 2=restart with 2 vectors
   NREBOOT  =      0    no. of reboots
   NMIN     =      0    reboot dimension
   EREF     =   0.00    reference energy to select bands
   IMIX   =      4    mixing-type and parameters
     AMIX     =   0.40;   BMIX     =  1.00
     AMIX_MAG =   1.60;   BMIX_MAG =  1.00
     AMIN     =   0.10
     WC   =   100.;   INIMIX=   1;  MIXPRE=   1;  MAXMIX= -45

 Intra band minimization:
   WEIMIN = 0.0000     energy-eigenvalue tresh-hold
   EBREAK =  0.26E-06  absolut break condition
   DEPER  =   0.30     relativ break condition  

   TIME   =   0.40     timestep for ELM

  volume/ion in A,a.u.               =      59.50       401.54
  Fermi-wavevector in a.u.,A,eV,Ry     =   0.910332  1.720279 11.275217  0.828705
  Thomas-Fermi vector in A             =   2.034482
 
 Write flags
   LWAVE        =      T    write WAVECAR
   LDOWNSAMPLE  =      F    k-point downsampling of WAVECAR
   LCHARG       =      T    write CHGCAR
   LVTOT        =      F    write LOCPOT, total local potential
   LVHAR        =      F    write LOCPOT, Hartree potential only
   LELF         =      F    write electronic localiz. function (ELF)
   LORBIT       =      0    0 simple, 1 ext, 2 COOP (PROOUT), +10 PAW based schemes


 Dipole corrections
   LMONO  =      F    monopole corrections only (constant potential shift)
   LDIPOL =      F    correct potential (dipole corrections)
   IDIPOL =      0    1-x, 2-y, 3-z, 4-all directions 
   EPSILON=  1.0000000 bulk dielectric constant

 Exchange correlation treatment:
   GGA     =    PE    GGA type
   LEXCH   =     8    internal setting for exchange type
   LIBXC   =     F    Libxc                    
   VOSKOWN =     0    Vosko Wilk Nusair interpolation
   LHFCALC =     F    Hartree Fock is set to
   LHFONE  =     F    Hartree Fock one center treatment
   AEXX    =    0.0000 exact exchange contribution

 Linear response parameters
   LEPSILON=     F    determine dielectric tensor
   LRPA    =     F    only Hartree local field effects (RPA)
   LNABLA  =     F    use nabla operator in PAW spheres
   LVEL    =     F    velocity operator in full k-point grid
   CSHIFT  =0.1000    complex shift for real part using Kramers Kronig
   OMEGAMAX=  -1.0    maximum frequency
   DEG_THRESHOLD= 0.2000000E-02 threshold for treating states as degnerate
   RTIME   =   -0.100 relaxation time in fs
  (WPLASMAI=    0.000 imaginary part of plasma frequency in eV, 0.658/RTIME)
   DFIELD  = 0.0000000 0.0000000 0.0000000 field for delta impulse in time
 
  Optional k-point grid parameters
   LKPOINTS_OPT  =     F    use optional k-point grid
   KPOINTS_OPT_MODE=     1    mode for optional k-point grid
 
 Orbital magnetization related:
   ORBITALMAG=     F  switch on orbital magnetization
   LCHIMAG   =     F  perturbation theory with respect to B field
   DQ        =  0.001000  dq finite difference perturbation B field
   LLRAUG    =     F  two centre corrections for induced B field



--------------------------------------------------------------------------------------------------------


 Static calculation
 charge density and potential will be updated during run
 spin polarized calculation
 Variant of blocked Davidson
 Davidson routine will perform the subspace rotation
 perform sub-space diagonalisation
    after iterative eigenvector-optimisation
 modified Broyden-mixing scheme, WC =      100.0
 initial mixing is a Kerker type mixing with AMIX =  0.4000 and BMIX =      1.0000
 Hartree-type preconditioning will be used
 using additional bands           29
 reciprocal scheme for non local part
 use partial core corrections
 calculate Harris-corrections to forces 
   (improved forces if not selfconsistent)
 use gradient corrections 
 use of overlap-Matrix (Vanderbilt PP)
 Fermi-smearing in eV        SIGMA  =   0.03


--------------------------------------------------------------------------------------------------------


  energy-cutoff  :      600.00
  volume of cell :      773.53
      direct lattice vectors                 reciprocal lattice vectors
     5.112382028  0.000000000  0.000000000     0.195603536 -0.112931754  0.000000000
     2.556191014  4.427452710  0.000000000     0.000000000  0.225863508  0.000000000
     0.000000000  0.000000000 34.174242446     0.000000000  0.000000000  0.029261804

  length of vectors
     5.112382028  5.112382028 34.174242446     0.225863508  0.225863508  0.029261804


 
 k-points in units of 2pi/SCALE and weight: K-Points                                
   0.00000000  0.00000000  0.00000000       0.040
   0.03912071 -0.02258635  0.00000000       0.160
   0.00000000  0.04517270  0.00000000       0.080
   0.07824141 -0.04517270  0.00000000       0.160
   0.00000000  0.09034540  0.00000000       0.080
   0.07824141  0.00000000  0.00000000       0.080
   0.03912071  0.06775905  0.00000000       0.160
  -0.07824141  0.09034540  0.00000000       0.160
  -0.03912071  0.11293175  0.00000000       0.080
 
 k-points in reciprocal lattice and weights: K-Points                                
   0.00000000  0.00000000  0.00000000       0.040
   0.20000000  0.00000000  0.00000000       0.160
   0.00000000  0.20000000  0.00000000       0.080
   0.40000000  0.00000000  0.00000000       0.160
   0.00000000  0.40000000  0.00000000       0.080
   0.40000000  0.20000000  0.00000000       0.080
   0.20000000  0.40000000  0.00000000       0.160
  -0.40000000  0.20000000  0.00000000       0.160
  -0.20000000  0.40000000  0.00000000       0.080
 
 position of ions in fractional coordinates (direct lattice) 
   0.16666667  0.16666667  0.43892707
   0.66666667  0.16666667  0.43892707
   0.16666667  0.66666667  0.43892707
   0.66666667  0.66666667  0.43892707
   0.83333333  0.33333333  0.50000000
   0.33333333  0.33333333  0.50000000
   0.83333333  0.83333333  0.50000000
   0.33333333  0.83333333  0.50000000
   0.00000000  0.00000000  0.56107293
   0.50000000  0.00000000  0.56107293
   0.00000000  0.50000000  0.56107293
   0.50000000  0.50000000  0.56107293
   0.25000000  0.00000000  0.59172899
 
 position of ions in cartesian coordinates  (Angst):
   1.27809551  0.73790879 15.00000000
   3.83428652  0.73790879 15.00000000
   2.55619101  2.95163514 15.00000000
   5.11238203  2.95163514 15.00000000
   5.11238203  1.47581757 17.08712122
   2.55619101  1.47581757 17.08712122
   6.39047753  3.68954393 17.08712122
   3.83428652  3.68954393 17.08712122
   0.00000000  0.00000000 19.17424245
   2.55619101  0.00000000 19.17424245
   1.27809551  2.21372636 19.17424245
   3.83428652  2.21372636 19.17424245
   1.27809551  0.00000000 20.22189000
 


--------------------------------------------------------------------------------------------------------


 k-point   1 :   0.0000 0.0000 0.0000  plane waves:   25823
 k-point   2 :   0.2000 0.0000 0.0000  plane waves:   25780
 k-point   3 :   0.0000 0.2000 0.0000  plane waves:   25780
 k-point   4 :   0.4000 0.0000 0.0000  plane waves:   25868
 k-point   5 :   0.0000 0.4000 0.0000  plane waves:   25868
 k-point   6 :   0.4000 0.2000 0.0000  plane waves:   25778
 k-point   7 :   0.2000 0.4000 0.0000  plane waves:   25778
 k-point   8 :  -0.4000 0.2000 0.0000  plane waves:   25818
 k-point   9 :  -0.2000 0.4000 0.0000  plane waves:   25818

 maximum and minimum number of plane-waves per node :     25868    25778

 maximum number of plane-waves:     25868
 maximum index in each direction: 
   IXMAX=   10   IYMAX=   10   IZMAX=   68
   IXMIN=  -10   IYMIN=  -10   IZMIN=  -68


 serial   3D FFT for wavefunctions
 parallel 3D FFT for charge:
    minimum data exchange during FFTs selected (reduces bandwidth)


 total amount of memory used by VASP MPI-rank0   149681. kBytes
=======================================================================

   base      :      30000. kBytes
   nonl-proj :      72486. kBytes
   fftplans  :       2678. kBytes
   grid      :      21553. kBytes
   one-center:        404. kBytes
   wavefun   :      22560. kBytes
 
     INWAV:  cpu time      0.0000: real time      0.0000
 Broyden mixing: mesh for mixing (old mesh)
   NGX = 21   NGY = 21   NGZ =137
  (NGX  = 64   NGY  = 64   NGZ  =420)
  gives a total of  60417 points

 initial charge density was supplied:
 charge density of overlapping atoms calculated
 number of electron     133.0000000 magnetization       1.0000000
 keeping initial charge density in first step


--------------------------------------------------------------------------------------------------------


 Maximum index for augmentation-charges          425 (set IRDMAX)


--------------------------------------------------------------------------------------------------------


 First call to EWALD:  gamma=   0.193
 Maximum number of real-space cells 5x 5x 1
 Maximum number of reciprocal cells 2x 2x 9

    FEWALD:  cpu time      0.0006: real time      0.0006


--------------------------------------- Iteration      1(   1)  ---------------------------------------


    POTLOK:  cpu time      0.0913: real time      0.1064
    SETDIJ:  cpu time      0.0045: real time      0.0045
     EDDAV:  cpu time      4.2803: real time      4.3251
       DOS:  cpu time      0.0031: real time      0.0032
    --------------------------------------------
      LOOP:  cpu time      4.3792: real time      4.4392

 eigenvalue-minimisations  :  3456
 total energy-change (2. order) : 0.1022367E+04  (-0.5674979E+04)
 number of electron     133.0000000 magnetization       1.0000000
 augmentation part      133.0000000 magnetization       1.0000000

 Free energy of the ion-electron system (eV)
  ---------------------------------------------------
  alpha Z        PSCENC =       137.59429322
  Ewald energy   TEWEN  =    123930.80669556
  -Hartree energ DENC   =   -139509.66443658
  -exchange      EXHF   =         0.00000000
  -V(xc)+E(xc)   XCENC  =       548.69901574
  PAW double counting   =     14740.27424841   -16010.38430694
  entropy T*S    EENTRO =        -0.03995314
  eigenvalues    EBANDS =       480.86400774
  atomic energy  EATOM  =     16704.21750749
  Solvation  Ecorr_sol  =         0.00000000
  ---------------------------------------------------
  free energy    TOTEN  =      1022.36707150 eV

  energy without entropy =     1022.40702464  energy(sigma->0) =     1022.38704807


--------------------------------------------------------------------------------------------------------




--------------------------------------- Iteration      1(   2)  ---------------------------------------


     EDDAV:  cpu time      4.6475: real time      4.6945
       DOS:  cpu time      0.0004: real time      0.0004
    --------------------------------------------
      LOOP:  cpu time      4.6479: real time      4.6950

 eigenvalue-minimisations  :  3456
 total energy-change (2. order) :-0.1031204E+04  (-0.9601101E+03)
 number of electron     133.0000000 magnetization       1.0000000
 augmentation part      133.0000000 magnetization       1.0000000

 Free energy of the ion-electron system (eV)
  ---------------------------------------------------
  alpha Z        PSCENC =       137.59429322
  Ewald energy   TEWEN  =    123930.80669556
  -Hartree energ DENC   =   -139509.66443658
  -exchange      EXHF   =         0.00000000
  -V(xc)+E(xc)   XCENC  =       548.69901574
  PAW double counting   =     14740.27424841   -16010.38430694
  entropy T*S    EENTRO =        -0.02129144
  eigenvalues    EBANDS =      -550.35874923
  atomic energy  EATOM  =     16704.21750749
  Solvation  Ecorr_sol  =         0.00000000
  ---------------------------------------------------
  free energy    TOTEN  =        -8.83702377 eV

  energy without entropy =       -8.81573233  energy(sigma->0) =       -8.82637805


--------------------------------------------------------------------------------------------------------




--------------------------------------- Iteration      1(   3)  ---------------------------------------


     EDDAV:  cpu time      5.6038: real time      5.6626
       DOS:  cpu time      0.0004: real time      0.0004
    --------------------------------------------
      LOOP:  cpu time      5.6042: real time      5.6630

 eigenvalue-minimisations  :  4640
 total energy-change (2. order) :-0.4321026E+02  (-0.4220633E+02)
 number of electron     133.0000000 magnetization       1.0000000
 augmentation part      133.0000000 magnetization       1.0000000

 Free energy of the ion-electron system (eV)
  ---------------------------------------------------
  alpha Z        PSCENC =       137.59429322
  Ewald energy   TEWEN  =    123930.80669556
  -Hartree energ DENC   =   -139509.66443658
  -exchange      EXHF   =         0.00000000
  -V(xc)+E(xc)   XCENC  =       548.69901574
  PAW double counting   =     14740.27424841   -16010.38430694
  entropy T*S    EENTRO =        -0.01676288
  eigenvalues    EBANDS =      -593.57353426
  atomic energy  EATOM  =     16704.21750749
  Solvation  Ecorr_sol  =         0.00000000
  ---------------------------------------------------
  free energy    TOTEN  =       -52.04728023 eV

  energy without entropy =      -52.03051735  energy(sigma->0) =      -52.03889879


--------------------------------------------------------------------------------------------------------




--------------------------------------- Iteration      1(   4)  ---------------------------------------


     EDDAV:  cpu time      5.2852: real time      5.3320
       DOS:  cpu time      0.0004: real time      0.0004
    --------------------------------------------
      LOOP:  cpu time      5.2856: real time      5.3324

 eigenvalue-minimisations  :  4288
 total energy-change (2. order) :-0.9633417E+00  (-0.9629151E+00)
 number of electron     133.0000000 magnetization       1.0000000
 augmentation part      133.0000000 magnetization       1.0000000

 Free energy of the ion-electron system (eV)
  ---------------------------------------------------
  alpha Z        PSCENC =       137.59429322
  Ewald energy   TEWEN  =    123930.80669556
  -Hartree energ DENC   =   -139509.66443658
  -exchange      EXHF   =         0.00000000
  -V(xc)+E(xc)   XCENC  =       548.69901574
  PAW double counting   =     14740.27424841   -16010.38430694
  entropy T*S    EENTRO =        -0.01681361
  eigenvalues    EBANDS =      -594.53682525
  atomic energy  EATOM  =     16704.21750749
  Solvation  Ecorr_sol  =         0.00000000
  ---------------------------------------------------
  free energy    TOTEN  =       -53.01062196 eV

  energy without entropy =      -52.99380835  energy(sigma->0) =      -53.00221515


--------------------------------------------------------------------------------------------------------




--------------------------------------- Iteration      1(   5)  ---------------------------------------


     EDDAV:  cpu time      5.8307: real time      5.8872
       DOS:  cpu time      0.0004: real time      0.0004
    CHARGE:  cpu time      0.1606: real time      0.1617
    MIXING:  cpu time      0.0024: real time      0.0024
    --------------------------------------------
      LOOP:  cpu time      5.9942: real time      6.0518

 eigenvalue-minimisations  :  5120
 total energy-change (2. order) :-0.2872975E-01  (-0.2872323E-01)
 number of electron     133.0000046 magnetization       0.9641594
 augmentation part       78.0503457 magnetization       0.6957117

 Broyden mixing:
  rms(total) = 0.26117E+01    rms(broyden)= 0.26117E+01
  rms(prec ) = 0.26774E+01
  weight for this iteration     100.00

 Free energy of the ion-electron system (eV)
  ---------------------------------------------------
  alpha Z        PSCENC =       137.59429322
  Ewald energy   TEWEN  =    123930.80669556
  -Hartree energ DENC   =   -139509.66443658
  -exchange      EXHF   =         0.00000000
  -V(xc)+E(xc)   XCENC  =       548.69901574
  PAW double counting   =     14740.27424841   -16010.38430694
  entropy T*S    EENTRO =        -0.01681399
  eigenvalues    EBANDS =      -594.56555463
  atomic energy  EATOM  =     16704.21750749
  Solvation  Ecorr_sol  =         0.00000000
  ---------------------------------------------------
  free energy    TOTEN  =       -53.03935171 eV

  energy without entropy =      -53.02253772  energy(sigma->0) =      -53.03094471


--------------------------------------------------------------------------------------------------------




--------------------------------------- Iteration      1(   6)  ---------------------------------------


    POTLOK:  cpu time      0.0490: real time      0.0494
    SETDIJ:  cpu time      0.0039: real time      0.0039
     EDDAV:  cpu time      5.0094: real time      5.0460
       DOS:  cpu time      0.0004: real time      0.0004
    CHARGE:  cpu time      0.1535: real time      0.1543
    MIXING:  cpu time      0.0011: real time      0.0011
    --------------------------------------------
      LOOP:  cpu time      5.2173: real time      5.2552

 eigenvalue-minimisations  :  4256
 total energy-change (2. order) : 0.3746304E+01  (-0.1149445E+02)
 number of electron     133.0000046 magnetization       0.9445911
 augmentation part       88.3302712 magnetization       0.6091554

 Broyden mixing:
  rms(total) = 0.15319E+01    rms(broyden)= 0.15318E+01
  rms(prec ) = 0.15699E+01
  weight for this iteration     100.00

 eigenvalues of (default mixing * dielectric matrix)
  average eigenvalue GAMMA=   0.6350
  0.6350

 Free energy of the ion-electron system (eV)
  ---------------------------------------------------
  alpha Z        PSCENC =       137.59429322
  Ewald energy   TEWEN  =    123930.80669556
  -Hartree energ DENC   =   -139160.17120324
  -exchange      EXHF   =         0.00000000
  -V(xc)+E(xc)   XCENC  =       532.61968322
  PAW double counting   =     14882.47804147   -16085.97542557
  entropy T*S    EENTRO =        -0.01830586
  eigenvalues    EBANDS =      -990.84433392
  atomic energy  EATOM  =     16704.21750749
  Solvation  Ecorr_sol  =         0.00000000
  ---------------------------------------------------
  free energy    TOTEN  =       -49.29304762 eV

  energy without entropy =      -49.27474176  energy(sigma->0) =      -49.28389469


--------------------------------------------------------------------------------------------------------




--------------------------------------- Iteration      1(   7)  ---------------------------------------


    POTLOK:  cpu time      0.0517: real time      0.0522
    SETDIJ:  cpu time      0.0043: real time      0.0043
     EDDAV:  cpu time      5.2513: real time      5.2975
       DOS:  cpu time      0.0005: real time      0.0005
    CHARGE:  cpu time      0.1671: real time      0.1680
    MIXING:  cpu time      0.0011: real time      0.0011
    --------------------------------------------
      LOOP:  cpu time      5.4760: real time      5.5236

 eigenvalue-minimisations  :  4384
 total energy-change (2. order) : 0.5399776E+01  (-0.2350288E+01)
 number of electron     133.0000046 magnetization       0.9201934
 augmentation part       84.5150942 magnetization       0.5781538

 Broyden mixing:
  rms(total) = 0.23222E+00    rms(broyden)= 0.23220E+00
  rms(prec ) = 0.24321E+00
  weight for this iteration     100.00

 eigenvalues of (default mixing * dielectric matrix)
  average eigenvalue GAMMA=   0.8463
  1.0675  0.6252

 Free energy of the ion-electron system (eV)
  ---------------------------------------------------
  alpha Z        PSCENC =       137.59429322
  Ewald energy   TEWEN  =    123930.80669556
  -Hartree energ DENC   =   -139311.66990980
  -exchange      EXHF   =         0.00000000
  -V(xc)+E(xc)   XCENC  =       538.36705727
  PAW double counting   =     15176.94696332   -16437.37788062
  entropy T*S    EENTRO =        -0.03343552
  eigenvalues    EBANDS =      -782.74456212
  atomic energy  EATOM  =     16704.21750749
  Solvation  Ecorr_sol  =         0.00000000
  ---------------------------------------------------
  free energy    TOTEN  =       -43.89327119 eV

  energy without entropy =      -43.85983567  energy(sigma->0) =      -43.87655343


--------------------------------------------------------------------------------------------------------




--------------------------------------- Iteration      1(   8)  ---------------------------------------


    POTLOK:  cpu time      0.0510: real time      0.0541
    SETDIJ:  cpu time      0.0032: real time      0.0033
     EDDAV:  cpu time      5.9115: real time      5.9610
       DOS:  cpu time      0.0023: real time      0.0023
    CHARGE:  cpu time      0.1565: real time      0.1573
    MIXING:  cpu time      0.0024: real time      0.0024
    --------------------------------------------
      LOOP:  cpu time      6.1270: real time      6.1804

 eigenvalue-minimisations  :  5152
 total energy-change (2. order) :-0.4986607E-01  (-0.2320170E+00)
 number of electron     133.0000045 magnetization       0.8897133
 augmentation part       84.0207827 magnetization       0.5805630

 Broyden mixing:
  rms(total) = 0.28580E+00    rms(broyden)= 0.28580E+00
  rms(prec ) = 0.30022E+00
  weight for this iteration     100.00

 eigenvalues of (default mixing * dielectric matrix)
  average eigenvalue GAMMA=   0.8735
  1.6400  0.5946  0.3861

 Free energy of the ion-electron system (eV)
  ---------------------------------------------------
  alpha Z        PSCENC =       137.59429322
  Ewald energy   TEWEN  =    123930.80669556
  -Hartree energ DENC   =   -139328.55566820
  -exchange      EXHF   =         0.00000000
  -V(xc)+E(xc)   XCENC  =       538.33426646
  PAW double counting   =     15382.14998218   -16658.14791034
  entropy T*S    EENTRO =        -0.02822676
  eigenvalues    EBANDS =      -750.31407688
  atomic energy  EATOM  =     16704.21750749
  Solvation  Ecorr_sol  =         0.00000000
  ---------------------------------------------------
  free energy    TOTEN  =       -43.94313727 eV

  energy without entropy =      -43.91491051  energy(sigma->0) =      -43.92902389


--------------------------------------------------------------------------------------------------------




--------------------------------------- Iteration      1(   9)  ---------------------------------------


    POTLOK:  cpu time      0.0505: real time      0.0511
    SETDIJ:  cpu time      0.0043: real time      0.0043
     EDDAV:  cpu time      5.8279: real time      5.8743
       DOS:  cpu time      0.0009: real time      0.0009
    CHARGE:  cpu time      0.1919: real time      0.1928
    MIXING:  cpu time      0.0028: real time      0.0029
    --------------------------------------------
      LOOP:  cpu time      6.0784: real time      6.1263

 eigenvalue-minimisations  :  5184
 total energy-change (2. order) : 0.7973681E-01  (-0.6635353E-01)
 number of electron     133.0000046 magnetization       0.8706926
 augmentation part       83.9409585 magnetization       0.5355898

 Broyden mixing:
  rms(total) = 0.17808E+00    rms(broyden)= 0.17808E+00
  rms(prec ) = 0.18431E+00
  weight for this iteration     100.00

 eigenvalues of (default mixing * dielectric matrix)
  average eigenvalue GAMMA=   0.8378
  1.6930  0.6515  0.6515  0.3553

 Free energy of the ion-electron system (eV)
  ---------------------------------------------------
  alpha Z        PSCENC =       137.59429322
  Ewald energy   TEWEN  =    123930.80669556
  -Hartree energ DENC   =   -139333.57756275
  -exchange      EXHF   =         0.00000000
  -V(xc)+E(xc)   XCENC  =       537.86584374
  PAW double counting   =     15561.62294448   -16849.41759327
  entropy T*S    EENTRO =        -0.03349451
  eigenvalues    EBANDS =      -732.94203443
  atomic energy  EATOM  =     16704.21750749
  Solvation  Ecorr_sol  =         0.00000000
  ---------------------------------------------------
  free energy    TOTEN  =       -43.86340046 eV

  energy without entropy =      -43.82990595  energy(sigma->0) =      -43.84665320


--------------------------------------------------------------------------------------------------------




--------------------------------------- Iteration      1(  10)  ---------------------------------------


    POTLOK:  cpu time      0.0504: real time      0.0510
    SETDIJ:  cpu time      0.0043: real time      0.0044
     EDDAV:  cpu time      5.8338: real time      5.8831
       DOS:  cpu time      0.0019: real time      0.0019
    CHARGE:  cpu time      0.1803: real time      0.1813
    MIXING:  cpu time      0.0033: real time      0.0033
    --------------------------------------------
      LOOP:  cpu time      6.0740: real time      6.1250

 eigenvalue-minimisations  :  5376
 total energy-change (2. order) :-0.1722418E-01  (-0.2054709E-01)
 number of electron     133.0000045 magnetization       0.8479844
 augmentation part       84.1500342 magnetization       0.5151101

 Broyden mixing:
  rms(total) = 0.92305E-01    rms(broyden)= 0.92304E-01
  rms(prec ) = 0.96530E-01
  weight for this iteration     100.00

 eigenvalues of (default mixing * dielectric matrix)
  average eigenvalue GAMMA=   0.8847
  1.8290  1.1253  0.6624  0.4612  0.3457

 Free energy of the ion-electron system (eV)
  ---------------------------------------------------
  alpha Z        PSCENC =       137.59429322
  Ewald energy   TEWEN  =    123930.80669556
  -Hartree energ DENC   =   -139328.79724956
  -exchange      EXHF   =         0.00000000
  -V(xc)+E(xc)   XCENC  =       537.36841523
  PAW double counting   =     15604.47949548   -16893.52833409
  entropy T*S    EENTRO =        -0.03291150
  eigenvalues    EBANDS =      -735.98853647
  atomic energy  EATOM  =     16704.21750749
  Solvation  Ecorr_sol  =         0.00000000
  ---------------------------------------------------
  free energy    TOTEN  =       -43.88062464 eV

  energy without entropy =      -43.84771314  energy(sigma->0) =      -43.86416889


--------------------------------------------------------------------------------------------------------




--------------------------------------- Iteration      1(  11)  ---------------------------------------


    POTLOK:  cpu time      0.0482: real time      0.0511
    SETDIJ:  cpu time      0.0032: real time      0.0032
     EDDAV:  cpu time      5.6140: real time      5.6569
       DOS:  cpu time      0.0005: real time      0.0005
    CHARGE:  cpu time      0.1701: real time      0.1709
    MIXING:  cpu time      0.0055: real time      0.0055
    --------------------------------------------
      LOOP:  cpu time      5.8415: real time      5.8881

 eigenvalue-minimisations  :  4960
 total energy-change (2. order) :-0.4349273E-01  (-0.7986513E-02)
 number of electron     133.0000046 magnetization       0.8231485
 augmentation part       84.3102453 magnetization       0.5091711

 Broyden mixing:
  rms(total) = 0.37787E-01    rms(broyden)= 0.37785E-01
  rms(prec ) = 0.39976E-01
  weight for this iteration     100.00

 eigenvalues of (default mixing * dielectric matrix)
  average eigenvalue GAMMA=   0.9101
  2.1265  0.9600  0.9600  0.6768  0.3997  0.3375

 Free energy of the ion-electron system (eV)
  ---------------------------------------------------
  alpha Z        PSCENC =       137.59429322
  Ewald energy   TEWEN  =    123930.80669556
  -Hartree energ DENC   =   -139327.51917808
  -exchange      EXHF   =         0.00000000
  -V(xc)+E(xc)   XCENC  =       537.00205498
  PAW double counting   =     15633.85427651   -16923.83069263
  entropy T*S    EENTRO =        -0.03357550
  eigenvalues    EBANDS =      -736.01549891
  atomic energy  EATOM  =     16704.21750749
  Solvation  Ecorr_sol  =         0.00000000
  ---------------------------------------------------
  free energy    TOTEN  =       -43.92411737 eV

  energy without entropy =      -43.89054186  energy(sigma->0) =      -43.90732962


--------------------------------------------------------------------------------------------------------




--------------------------------------- Iteration      1(  12)  ---------------------------------------


    POTLOK:  cpu time      0.0513: real time      0.0518
    SETDIJ:  cpu time      0.0139: real time      0.0140
     EDDAV:  cpu time      6.0417: real time      6.0882
       DOS:  cpu time      0.0004: real time      0.0004
    CHARGE:  cpu time      0.1587: real time      0.1596
    MIXING:  cpu time      0.0021: real time      0.0021
    --------------------------------------------
      LOOP:  cpu time      6.2682: real time      6.3161

 eigenvalue-minimisations  :  5440
 total energy-change (2. order) :-0.3410714E-01  (-0.2209626E-02)
 number of electron     133.0000045 magnetization       0.7982236
 augmentation part       84.2832370 magnetization       0.5002563

 Broyden mixing:
  rms(total) = 0.36080E-01    rms(broyden)= 0.36080E-01
  rms(prec ) = 0.37822E-01
  weight for this iteration     100.00

 eigenvalues of (default mixing * dielectric matrix)
  average eigenvalue GAMMA=   0.9061
  2.2772  1.1050  1.1050  0.6647  0.4534  0.4065  0.3311

 Free energy of the ion-electron system (eV)
  ---------------------------------------------------
  alpha Z        PSCENC =       137.59429322
  Ewald energy   TEWEN  =    123930.80669556
  -Hartree energ DENC   =   -139333.58782729
  -exchange      EXHF   =         0.00000000
  -V(xc)+E(xc)   XCENC  =       536.97811957
  PAW double counting   =     15652.44140899   -16943.99631116
  entropy T*S    EENTRO =        -0.03346984
  eigenvalues    EBANDS =      -728.37864105
  atomic energy  EATOM  =     16704.21750749
  Solvation  Ecorr_sol  =         0.00000000
  ---------------------------------------------------
  free energy    TOTEN  =       -43.95822451 eV

  energy without entropy =      -43.92475467  energy(sigma->0) =      -43.94148959


--------------------------------------------------------------------------------------------------------




--------------------------------------- Iteration      1(  13)  ---------------------------------------


    POTLOK:  cpu time      0.0508: real time      0.0513
    SETDIJ:  cpu time      0.0042: real time      0.0043
     EDDAV:  cpu time      5.3190: real time      5.3584
       DOS:  cpu time      0.0004: real time      0.0004
    CHARGE:  cpu time      0.1505: real time      0.1511
    MIXING:  cpu time      0.0016: real time      0.0016
    --------------------------------------------
      LOOP:  cpu time      5.5266: real time      5.5672

 eigenvalue-minimisations  :  4800
 total energy-change (2. order) :-0.2847740E-01  (-0.9835635E-03)
 number of electron     133.0000046 magnetization       0.7540138
 augmentation part       84.2677380 magnetization       0.4687537

 Broyden mixing:
  rms(total) = 0.27866E-01    rms(broyden)= 0.27866E-01
  rms(prec ) = 0.28546E-01
  weight for this iteration     100.00

 eigenvalues of (default mixing * dielectric matrix)
  average eigenvalue GAMMA=   0.9838
  2.5730  1.6750  1.1331  0.6836  0.6836  0.4204  0.3330  0.3688

 Free energy of the ion-electron system (eV)
  ---------------------------------------------------
  alpha Z        PSCENC =       137.59429322
  Ewald energy   TEWEN  =    123930.80669556
  -Hartree energ DENC   =   -139338.60486245
  -exchange      EXHF   =         0.00000000
  -V(xc)+E(xc)   XCENC  =       536.95249589
  PAW double counting   =     15661.40982079   -16953.76510392
  entropy T*S    EENTRO =        -0.03364597
  eigenvalues    EBANDS =      -722.56390251
  atomic energy  EATOM  =     16704.21750749
  Solvation  Ecorr_sol  =         0.00000000
  ---------------------------------------------------
  free energy    TOTEN  =       -43.98670190 eV

  energy without entropy =      -43.95305594  energy(sigma->0) =      -43.96987892


--------------------------------------------------------------------------------------------------------




--------------------------------------- Iteration      1(  14)  ---------------------------------------


    POTLOK:  cpu time      0.0472: real time      0.0478
    SETDIJ:  cpu time      0.0033: real time      0.0033
     EDDAV:  cpu time      5.1182: real time      5.1568
       DOS:  cpu time      0.0004: real time      0.0004
    CHARGE:  cpu time      0.1467: real time      0.1475
    MIXING:  cpu time      0.0015: real time      0.0015
    --------------------------------------------
      LOOP:  cpu time      5.3173: real time      5.3573

 eigenvalue-minimisations  :  4512
 total energy-change (2. order) :-0.4303636E-01  (-0.9005270E-03)
 number of electron     133.0000045 magnetization       0.7220459
 augmentation part       84.2829486 magnetization       0.4555723

 Broyden mixing:
  rms(total) = 0.23124E-01    rms(broyden)= 0.23124E-01
  rms(prec ) = 0.23547E-01
  weight for this iteration     100.00

 eigenvalues of (default mixing * dielectric matrix)
  average eigenvalue GAMMA=   1.0090
  2.8509  1.8784  1.1053  0.7658  0.7658  0.6120  0.4109  0.3276  0.3644

 Free energy of the ion-electron system (eV)
  ---------------------------------------------------
  alpha Z        PSCENC =       137.59429322
  Ewald energy   TEWEN  =    123930.80669556
  -Hartree energ DENC   =   -139344.91316562
  -exchange      EXHF   =         0.00000000
  -V(xc)+E(xc)   XCENC  =       536.88422911
  PAW double counting   =     15665.25926937   -16957.88657486
  entropy T*S    EENTRO =        -0.03379780
  eigenvalues    EBANDS =      -715.95819473
  atomic energy  EATOM  =     16704.21750749
  Solvation  Ecorr_sol  =         0.00000000
  ---------------------------------------------------
  free energy    TOTEN  =       -44.02973826 eV

  energy without entropy =      -43.99594046  energy(sigma->0) =      -44.01283936


--------------------------------------------------------------------------------------------------------




--------------------------------------- Iteration      1(  15)  ---------------------------------------


    POTLOK:  cpu time      0.0473: real time      0.0478
    SETDIJ:  cpu time      0.0040: real time      0.0040
     EDDAV:  cpu time      5.3319: real time      5.3759
       DOS:  cpu time      0.0004: real time      0.0004
    CHARGE:  cpu time      0.1932: real time      0.1943
    MIXING:  cpu time      0.0035: real time      0.0035
    --------------------------------------------
      LOOP:  cpu time      5.5803: real time      5.6260

 eigenvalue-minimisations  :  4672
 total energy-change (2. order) :-0.3124776E-01  (-0.4023679E-03)
 number of electron     133.0000046 magnetization       0.6527168
 augmentation part       84.2981310 magnetization       0.4006237

 Broyden mixing:
  rms(total) = 0.21802E-01    rms(broyden)= 0.21801E-01
  rms(prec ) = 0.22098E-01
  weight for this iteration     100.00

 eigenvalues of (default mixing * dielectric matrix)
  average eigenvalue GAMMA=   1.0956
  3.4962  2.1431  1.1930  1.1930  0.6983  0.6983  0.4458  0.4013  0.3271  0.3600

 Free energy of the ion-electron system (eV)
  ---------------------------------------------------
  alpha Z        PSCENC =       137.59429322
  Ewald energy   TEWEN  =    123930.80669556
  -Hartree energ DENC   =   -139348.09977673
  -exchange      EXHF   =         0.00000000
  -V(xc)+E(xc)   XCENC  =       536.84579853
  PAW double counting   =     15663.55311241   -16956.01270076
  entropy T*S    EENTRO =        -0.03400865
  eigenvalues    EBANDS =      -712.93190709
  atomic energy  EATOM  =     16704.21750749
  Solvation  Ecorr_sol  =         0.00000000
  ---------------------------------------------------
  free energy    TOTEN  =       -44.06098602 eV

  energy without entropy =      -44.02697737  energy(sigma->0) =      -44.04398169


--------------------------------------------------------------------------------------------------------




--------------------------------------- Iteration      1(  16)  ---------------------------------------


    POTLOK:  cpu time      0.0489: real time      0.0542
    SETDIJ:  cpu time      0.0032: real time      0.0033
     EDDAV:  cpu time      5.1270: real time      5.1654
       DOS:  cpu time      0.0004: real time      0.0004
    CHARGE:  cpu time      0.1590: real time      0.1599
    MIXING:  cpu time      0.0041: real time      0.0042
    --------------------------------------------
      LOOP:  cpu time      5.3427: real time      5.3873

 eigenvalue-minimisations  :  4608
 total energy-change (2. order) :-0.6049932E-01  (-0.1085649E-02)
 number of electron     133.0000046 magnetization       0.5840883
 augmentation part       84.3092816 magnetization       0.3598640

 Broyden mixing:
  rms(total) = 0.19827E-01    rms(broyden)= 0.19826E-01
  rms(prec ) = 0.20035E-01
  weight for this iteration     100.00

 eigenvalues of (default mixing * dielectric matrix)
  average eigenvalue GAMMA=   1.2841
  5.2079  2.5007  1.6030  1.1317  0.7746  0.7746  0.6406  0.4244  0.3273  0.3824
  0.3578

 Free energy of the ion-electron system (eV)
  ---------------------------------------------------
  alpha Z        PSCENC =       137.59429322
  Ewald energy   TEWEN  =    123930.80669556
  -Hartree energ DENC   =   -139354.54849992
  -exchange      EXHF   =         0.00000000
  -V(xc)+E(xc)   XCENC  =       536.80866966
  PAW double counting   =     15656.00919665   -16947.97823901
  entropy T*S    EENTRO =        -0.03434894
  eigenvalues    EBANDS =      -706.99676006
  atomic energy  EATOM  =     16704.21750749
  Solvation  Ecorr_sol  =         0.00000000
  ---------------------------------------------------
  free energy    TOTEN  =       -44.12148534 eV

  energy without entropy =      -44.08713641  energy(sigma->0) =      -44.10431087


--------------------------------------------------------------------------------------------------------




--------------------------------------- Iteration      1(  17)  ---------------------------------------


    POTLOK:  cpu time      0.0464: real time      0.0468
    SETDIJ:  cpu time      0.0032: real time      0.0032
     EDDAV:  cpu time      4.9696: real time      5.0070
       DOS:  cpu time      0.0004: real time      0.0004
    CHARGE:  cpu time      0.1711: real time      0.1720
    MIXING:  cpu time      0.0026: real time      0.0026
    --------------------------------------------
      LOOP:  cpu time      5.1932: real time      5.2320

 eigenvalue-minimisations  :  4416
 total energy-change (2. order) :-0.5579523E-01  (-0.5982758E-03)
 number of electron     133.0000046 magnetization       0.5324057
 augmentation part       84.2917623 magnetization       0.3339949

 Broyden mixing:
  rms(total) = 0.15405E-01    rms(broyden)= 0.15405E-01
  rms(prec ) = 0.15608E-01
  weight for this iteration     100.00

 eigenvalues of (default mixing * dielectric matrix)
  average eigenvalue GAMMA=   1.4183
  7.1716  2.6315  1.7719  1.0392  1.0392  0.6814  0.6814  0.5300  0.4158  0.3266
  0.3739  0.3569

 Free energy of the ion-electron system (eV)
  ---------------------------------------------------
  alpha Z        PSCENC =       137.59429322
  Ewald energy   TEWEN  =    123930.80669556
  -Hartree energ DENC   =   -139360.12779731
  -exchange      EXHF   =         0.00000000
  -V(xc)+E(xc)   XCENC  =       536.81065015
  PAW double counting   =     15649.71393548   -16941.47225949
  entropy T*S    EENTRO =        -0.03473021
  eigenvalues    EBANDS =      -701.68557548
  atomic energy  EATOM  =     16704.21750749
  Solvation  Ecorr_sol  =         0.00000000
  ---------------------------------------------------
  free energy    TOTEN  =       -44.17728058 eV

  energy without entropy =      -44.14255037  energy(sigma->0) =      -44.15991547


--------------------------------------------------------------------------------------------------------




--------------------------------------- Iteration      1(  18)  ---------------------------------------


    POTLOK:  cpu time      0.0518: real time      0.0523
    SETDIJ:  cpu time      0.0031: real time      0.0031
     EDDAV:  cpu time      5.0695: real time      5.1079
       DOS:  cpu time      0.0004: real time      0.0004
    CHARGE:  cpu time      0.1648: real time      0.1656
    MIXING:  cpu time      0.0024: real time      0.0024
    --------------------------------------------
      LOOP:  cpu time      5.2920: real time      5.3318

 eigenvalue-minimisations  :  4416
 total energy-change (2. order) :-0.4177083E-01  (-0.2593129E-03)
 number of electron     133.0000046 magnetization       0.4567549
 augmentation part       84.2766069 magnetization       0.2774613

 Broyden mixing:
  rms(total) = 0.14119E-01    rms(broyden)= 0.14118E-01
  rms(prec ) = 0.14332E-01
  weight for this iteration     100.00

 eigenvalues of (default mixing * dielectric matrix)
  average eigenvalue GAMMA=   1.5010
  8.5420  2.6241  1.8587  1.2096  1.2096  0.7648  0.7648  0.6512  0.4203  0.4203
  0.3265  0.3606  0.3606

 Free energy of the ion-electron system (eV)
  ---------------------------------------------------
  alpha Z        PSCENC =       137.59429322
  Ewald energy   TEWEN  =    123930.80669556
  -Hartree energ DENC   =   -139362.88267980
  -exchange      EXHF   =         0.00000000
  -V(xc)+E(xc)   XCENC  =       536.80079386
  PAW double counting   =     15648.38651376   -16940.19862196
  entropy T*S    EENTRO =        -0.03502966
  eigenvalues    EBANDS =      -698.90852387
  atomic energy  EATOM  =     16704.21750749
  Solvation  Ecorr_sol  =         0.00000000
  ---------------------------------------------------
  free energy    TOTEN  =       -44.21905141 eV

  energy without entropy =      -44.18402175  energy(sigma->0) =      -44.20153658


--------------------------------------------------------------------------------------------------------




--------------------------------------- Iteration      1(  19)  ---------------------------------------


    POTLOK:  cpu time      0.0455: real time      0.0488
    SETDIJ:  cpu time      0.0033: real time      0.0033
     EDDAV:  cpu time      4.9049: real time      4.9407
       DOS:  cpu time      0.0018: real time      0.0018
    CHARGE:  cpu time      0.1598: real time      0.1606
    MIXING:  cpu time      0.0024: real time      0.0024
    --------------------------------------------
      LOOP:  cpu time      5.1177: real time      5.1577

 eigenvalue-minimisations  :  4288
 total energy-change (2. order) :-0.5322979E-01  (-0.1879647E-03)
 number of electron     133.0000046 magnetization       0.3934367
 augmentation part       84.2769256 magnetization       0.2426364

 Broyden mixing:
  rms(total) = 0.12138E-01    rms(broyden)= 0.12138E-01
  rms(prec ) = 0.12388E-01
  weight for this iteration     100.00

 eigenvalues of (default mixing * dielectric matrix)
  average eigenvalue GAMMA=   1.6500
 10.2276  2.8815  2.4660  1.3671  1.3203  0.8338  0.8338  0.6487  0.6487  0.4231
  0.4042  0.3266  0.3594  0.3594

 Free energy of the ion-electron system (eV)
  ---------------------------------------------------
  alpha Z        PSCENC =       137.59429322
  Ewald energy   TEWEN  =    123930.80669556
  -Hartree energ DENC   =   -139363.05729659
  -exchange      EXHF   =         0.00000000
  -V(xc)+E(xc)   XCENC  =       536.73103122
  PAW double counting   =     15652.39645574   -16944.46677422
  entropy T*S    EENTRO =        -0.03527060
  eigenvalues    EBANDS =      -698.45892303
  atomic energy  EATOM  =     16704.21750749
  Solvation  Ecorr_sol  =         0.00000000
  ---------------------------------------------------
  free energy    TOTEN  =       -44.27228120 eV

  energy without entropy =      -44.23701060  energy(sigma->0) =      -44.25464590


--------------------------------------------------------------------------------------------------------




--------------------------------------- Iteration      1(  20)  ---------------------------------------


    POTLOK:  cpu time      0.0468: real time      0.0474
    SETDIJ:  cpu time      0.0040: real time      0.0040
     EDDAV:  cpu time      5.0276: real time      5.0646
       DOS:  cpu time      0.0004: real time      0.0004
    CHARGE:  cpu time      0.2315: real time      0.2326
    MIXING:  cpu time      0.0029: real time      0.0029
    --------------------------------------------
      LOOP:  cpu time      5.3131: real time      5.3519

 eigenvalue-minimisations  :  4448
 total energy-change (2. order) :-0.3231991E-01  (-0.7692159E-04)
 number of electron     133.0000046 magnetization       0.3228478
 augmentation part       84.2853066 magnetization       0.1957913

 Broyden mixing:
  rms(total) = 0.10009E-01    rms(broyden)= 0.10008E-01
  rms(prec ) = 0.10165E-01
  weight for this iteration     100.00

 eigenvalues of (default mixing * dielectric matrix)
  average eigenvalue GAMMA=   1.7973
 12.2455  3.8704  2.5455  1.6067  1.0792  1.0792  0.7624  0.7624  0.6459  0.4805
  0.4271  0.4111  0.3264  0.3585  0.3585

 Free energy of the ion-electron system (eV)
  ---------------------------------------------------
  alpha Z        PSCENC =       137.59429322
  Ewald energy   TEWEN  =    123930.80669556
  -Hartree energ DENC   =   -139361.41943715
  -exchange      EXHF   =         0.00000000
  -V(xc)+E(xc)   XCENC  =       536.67653954
  PAW double counting   =     15654.77868899   -16946.92037321
  entropy T*S    EENTRO =        -0.03554895
  eigenvalues    EBANDS =      -700.00296660
  atomic energy  EATOM  =     16704.21750749
  Solvation  Ecorr_sol  =         0.00000000
  ---------------------------------------------------
  free energy    TOTEN  =       -44.30460111 eV

  energy without entropy =      -44.26905216  energy(sigma->0) =      -44.28682663


--------------------------------------------------------------------------------------------------------




--------------------------------------- Iteration      1(  21)  ---------------------------------------


    POTLOK:  cpu time      0.0457: real time      0.0463
    SETDIJ:  cpu time      0.0032: real time      0.0032
     EDDAV:  cpu time      5.0008: real time      5.0434
       DOS:  cpu time      0.0004: real time      0.0004
    CHARGE:  cpu time      0.1463: real time      0.1471
    MIXING:  cpu time      0.0029: real time      0.0029
    --------------------------------------------
      LOOP:  cpu time      5.1994: real time      5.2434

 eigenvalue-minimisations  :  4448
 total energy-change (2. order) :-0.2230653E-01  (-0.7947159E-04)
 number of electron     133.0000046 magnetization       0.2335335
 augmentation part       84.2955484 magnetization       0.1331242

 Broyden mixing:
  rms(total) = 0.92000E-02    rms(broyden)= 0.91999E-02
  rms(prec ) = 0.93534E-02
  weight for this iteration     100.00

 eigenvalues of (default mixing * dielectric matrix)
  average eigenvalue GAMMA=   1.9887
 14.9377  4.8176  2.4837  1.7116  1.2775  1.2775  0.8397  0.8397  0.6673  0.6673
  0.4315  0.4315  0.3264  0.3934  0.3584  0.3584

 Free energy of the ion-electron system (eV)
  ---------------------------------------------------
  alpha Z        PSCENC =       137.59429322
  Ewald energy   TEWEN  =    123930.80669556
  -Hartree energ DENC   =   -139359.08569273
  -exchange      EXHF   =         0.00000000
  -V(xc)+E(xc)   XCENC  =       536.63279108
  PAW double counting   =     15655.64102990   -16947.73844152
  entropy T*S    EENTRO =        -0.03571437
  eigenvalues    EBANDS =      -702.35937628
  atomic energy  EATOM  =     16704.21750749
  Solvation  Ecorr_sol  =         0.00000000
  ---------------------------------------------------
  free energy    TOTEN  =       -44.32690764 eV

  energy without entropy =      -44.29119327  energy(sigma->0) =      -44.30905045


--------------------------------------------------------------------------------------------------------




--------------------------------------- Iteration      1(  22)  ---------------------------------------


    POTLOK:  cpu time      0.0449: real time      0.0480
    SETDIJ:  cpu time      0.0045: real time      0.0045
     EDDAV:  cpu time      4.3911: real time      4.4249
       DOS:  cpu time      0.0004: real time      0.0004
    CHARGE:  cpu time      0.1612: real time      0.1621
    MIXING:  cpu time      0.0031: real time      0.0031
    --------------------------------------------
      LOOP:  cpu time      4.6051: real time      4.6431

 eigenvalue-minimisations  :  3904
 total energy-change (2. order) :-0.1501801E-01  (-0.9604143E-04)
 number of electron     133.0000046 magnetization       0.1681318
 augmentation part       84.2900558 magnetization       0.0995522

 Broyden mixing:
  rms(total) = 0.67126E-02    rms(broyden)= 0.67124E-02
  rms(prec ) = 0.68617E-02
  weight for this iteration     100.00

 eigenvalues of (default mixing * dielectric matrix)
  average eigenvalue GAMMA=   2.2148
 18.2344  5.7182  2.5485  2.2026  1.6067  1.0386  1.0386  0.8217  0.8217  0.6861
  0.6399  0.4296  0.4296  0.3265  0.3927  0.3583  0.3583

 Free energy of the ion-electron system (eV)
  ---------------------------------------------------
  alpha Z        PSCENC =       137.59429322
  Ewald energy   TEWEN  =    123930.80669556
  -Hartree energ DENC   =   -139357.03278727
  -exchange      EXHF   =         0.00000000
  -V(xc)+E(xc)   XCENC  =       536.62850631
  PAW double counting   =     15654.67223035   -16946.73187552
  entropy T*S    EENTRO =        -0.03598902
  eigenvalues    EBANDS =      -704.46050678
  atomic energy  EATOM  =     16704.21750749
  Solvation  Ecorr_sol  =         0.00000000
  ---------------------------------------------------
  free energy    TOTEN  =       -44.34192565 eV

  energy without entropy =      -44.30593663  energy(sigma->0) =      -44.32393114


--------------------------------------------------------------------------------------------------------




--------------------------------------- Iteration      1(  23)  ---------------------------------------


    POTLOK:  cpu time      0.0456: real time      0.0462
    SETDIJ:  cpu time      0.0039: real time      0.0040
     EDDAV:  cpu time      4.4215: real time      4.4549
       DOS:  cpu time      0.0016: real time      0.0016
    CHARGE:  cpu time      0.1599: real time      0.1608
    MIXING:  cpu time      0.0031: real time      0.0031
    --------------------------------------------
      LOOP:  cpu time      4.6356: real time      4.6706

 eigenvalue-minimisations  :  3776
 total energy-change (2. order) :-0.1794858E-01  (-0.7903311E-04)
 number of electron     133.0000046 magnetization       0.1168064
 augmentation part       84.2848655 magnetization       0.0699868

 Broyden mixing:
  rms(total) = 0.53045E-02    rms(broyden)= 0.53043E-02
  rms(prec ) = 0.54188E-02
  weight for this iteration     100.00

 eigenvalues of (default mixing * dielectric matrix)
  average eigenvalue GAMMA=   2.3950
 21.2523  6.5146  2.9052  2.4424  1.4139  1.4139  1.1064  0.8601  0.8601  0.7117
  0.7117  0.6242  0.4286  0.4286  0.3265  0.3939  0.3583  0.3583

 Free energy of the ion-electron system (eV)
  ---------------------------------------------------
  alpha Z        PSCENC =       137.59429322
  Ewald energy   TEWEN  =    123930.80669556
  -Hartree energ DENC   =   -139355.57533543
  -exchange      EXHF   =         0.00000000
  -V(xc)+E(xc)   XCENC  =       536.61466764
  PAW double counting   =     15655.09009504   -16947.20942881
  entropy T*S    EENTRO =        -0.03607788
  eigenvalues    EBANDS =      -705.86229107
  atomic energy  EATOM  =     16704.21750749
  Solvation  Ecorr_sol  =         0.00000000
  ---------------------------------------------------
  free energy    TOTEN  =       -44.35987423 eV

  energy without entropy =      -44.32379635  energy(sigma->0) =      -44.34183529


--------------------------------------------------------------------------------------------------------




--------------------------------------- Iteration      1(  24)  ---------------------------------------


    POTLOK:  cpu time      0.0441: real time      0.0447
    SETDIJ:  cpu time      0.0045: real time      0.0045
     EDDAV:  cpu time      4.2893: real time      4.3229
       DOS:  cpu time      0.0004: real time      0.0004
    CHARGE:  cpu time      0.1574: real time      0.1582
    MIXING:  cpu time      0.0042: real time      0.0043
    --------------------------------------------
      LOOP:  cpu time      4.4999: real time      4.5350

 eigenvalue-minimisations  :  3584
 total energy-change (2. order) :-0.1886801E-01  (-0.5050884E-04)
 number of electron     133.0000046 magnetization       0.0767998
 augmentation part       84.2854851 magnetization       0.0463782

 Broyden mixing:
  rms(total) = 0.42812E-02    rms(broyden)= 0.42811E-02
  rms(prec ) = 0.43811E-02
  weight for this iteration     100.00

 eigenvalues of (default mixing * dielectric matrix)
  average eigenvalue GAMMA=   2.5122
 23.6259  7.0878  3.2326  2.5427  1.7202  1.4708  1.2064  0.9157  0.9157  0.7286
  0.7286  0.6433  0.6185  0.4286  0.4286  0.3265  0.3938  0.3583  0.3583

 Free energy of the ion-electron system (eV)
  ---------------------------------------------------
  alpha Z        PSCENC =       137.59429322
  Ewald energy   TEWEN  =    123930.80669556
  -Hartree energ DENC   =   -139354.34077187
  -exchange      EXHF   =         0.00000000
  -V(xc)+E(xc)   XCENC  =       536.59563851
  PAW double counting   =     15654.23569562   -16946.29999958
  entropy T*S    EENTRO =        -0.03609052
  eigenvalues    EBANDS =      -707.15171069
  atomic energy  EATOM  =     16704.21750749
  Solvation  Ecorr_sol  =         0.00000000
  ---------------------------------------------------
  free energy    TOTEN  =       -44.37874225 eV

  energy without entropy =      -44.34265173  energy(sigma->0) =      -44.36069699


--------------------------------------------------------------------------------------------------------




--------------------------------------- Iteration      1(  25)  ---------------------------------------


    POTLOK:  cpu time      0.0446: real time      0.0453
    SETDIJ:  cpu time      0.0042: real time      0.0042
     EDDAV:  cpu time      4.2881: real time      4.3196
       DOS:  cpu time      0.0004: real time      0.0004
    CHARGE:  cpu time      0.1608: real time      0.1617
    MIXING:  cpu time      0.0040: real time      0.0040
    --------------------------------------------
      LOOP:  cpu time      4.5021: real time      4.5353

 eigenvalue-minimisations  :  3712
 total energy-change (2. order) :-0.1446504E-01  (-0.2600336E-04)
 number of electron     133.0000046 magnetization       0.0392224
 augmentation part       84.2858749 magnetization       0.0205106

 Broyden mixing:
  rms(total) = 0.34555E-02    rms(broyden)= 0.34554E-02
  rms(prec ) = 0.35506E-02
  weight for this iteration     100.00

 eigenvalues of (default mixing * dielectric matrix)
  average eigenvalue GAMMA=   2.6457
 26.2922  7.8241  3.8853  2.6275  2.1067  1.3443  1.3443  0.9587  0.9587  0.7626
  0.7626  0.6747  0.6291  0.3265  0.3583  0.3583  0.3935  0.4294  0.4294  0.4479

 Free energy of the ion-electron system (eV)
  ---------------------------------------------------
  alpha Z        PSCENC =       137.59429322
  Ewald energy   TEWEN  =    123930.80669556
  -Hartree energ DENC   =   -139353.50821160
  -exchange      EXHF   =         0.00000000
  -V(xc)+E(xc)   XCENC  =       536.58268648
  PAW double counting   =     15653.15820752   -16945.15129792
  entropy T*S    EENTRO =        -0.03611769
  eigenvalues    EBANDS =      -708.05697036
  atomic energy  EATOM  =     16704.21750749
  Solvation  Ecorr_sol  =         0.00000000
  ---------------------------------------------------
  free energy    TOTEN  =       -44.39320728 eV

  energy without entropy =      -44.35708959  energy(sigma->0) =      -44.37514844


--------------------------------------------------------------------------------------------------------




--------------------------------------- Iteration      1(  26)  ---------------------------------------


    POTLOK:  cpu time      0.0461: real time      0.0467
    SETDIJ:  cpu time      0.0031: real time      0.0031
     EDDAV:  cpu time      4.0717: real time      4.1026
       DOS:  cpu time      0.0024: real time      0.0024
    CHARGE:  cpu time      0.1522: real time      0.1530
    MIXING:  cpu time      0.0104: real time      0.0140
    --------------------------------------------
      LOOP:  cpu time      4.2859: real time      4.3219

 eigenvalue-minimisations  :  3392
 total energy-change (2. order) :-0.1075176E-01  (-0.2080581E-04)
 number of electron     133.0000046 magnetization       0.0198832
 augmentation part       84.2862940 magnetization       0.0113133

 Broyden mixing:
  rms(total) = 0.21738E-02    rms(broyden)= 0.21737E-02
  rms(prec ) = 0.22555E-02
  weight for this iteration     100.00

 eigenvalues of (default mixing * dielectric matrix)
  average eigenvalue GAMMA=   2.7702
 28.5233  8.7228  4.6165  2.6585  2.2763  1.4313  1.4313  1.1980  0.9061  0.9061
  0.7468  0.7468  0.6763  0.6250  0.3265  0.3583  0.3583  0.3937  0.4288  0.4288
  0.4142

 Free energy of the ion-electron system (eV)
  ---------------------------------------------------
  alpha Z        PSCENC =       137.59429322
  Ewald energy   TEWEN  =    123930.80669556
  -Hartree energ DENC   =   -139352.81605609
  -exchange      EXHF   =         0.00000000
  -V(xc)+E(xc)   XCENC  =       536.57126360
  PAW double counting   =     15652.64451951   -16944.60720776
  entropy T*S    EENTRO =        -0.03613532
  eigenvalues    EBANDS =      -708.77883927
  atomic energy  EATOM  =     16704.21750749
  Solvation  Ecorr_sol  =         0.00000000
  ---------------------------------------------------
  free energy    TOTEN  =       -44.40395905 eV

  energy without entropy =      -44.36782373  energy(sigma->0) =      -44.38589139


--------------------------------------------------------------------------------------------------------




--------------------------------------- Iteration      1(  27)  ---------------------------------------


    POTLOK:  cpu time      0.0518: real time      0.0525
    SETDIJ:  cpu time      0.0031: real time      0.0032
     EDDAV:  cpu time      4.0808: real time      4.1114
       DOS:  cpu time      0.0004: real time      0.0004
    CHARGE:  cpu time      0.1498: real time      0.1506
    MIXING:  cpu time      0.0029: real time      0.0029
    --------------------------------------------
      LOOP:  cpu time      4.2889: real time      4.3210

 eigenvalue-minimisations  :  3264
 total energy-change (2. order) :-0.5639008E-02  (-0.7734863E-05)
 number of electron     133.0000046 magnetization       0.0103931
 augmentation part       84.2872207 magnetization       0.0068995

 Broyden mixing:
  rms(total) = 0.13830E-02    rms(broyden)= 0.13830E-02
  rms(prec ) = 0.14733E-02
  weight for this iteration     100.00

 eigenvalues of (default mixing * dielectric matrix)
  average eigenvalue GAMMA=   2.8336
 30.2640  9.4227  5.0826  2.6952  2.4628  1.7015  1.4669  1.1979  0.9440  0.9440
  0.7730  0.7730  0.6753  0.6386  0.5944  0.3265  0.3583  0.3583  0.4288  0.4288
  0.3937  0.4094

 Free energy of the ion-electron system (eV)
  ---------------------------------------------------
  alpha Z        PSCENC =       137.59429322
  Ewald energy   TEWEN  =    123930.80669556
  -Hartree energ DENC   =   -139352.53350159
  -exchange      EXHF   =         0.00000000
  -V(xc)+E(xc)   XCENC  =       536.56177793
  PAW double counting   =     15653.21763102   -16945.22480726
  entropy T*S    EENTRO =        -0.03613578
  eigenvalues    EBANDS =      -709.01305865
  atomic energy  EATOM  =     16704.21750749
  Solvation  Ecorr_sol  =         0.00000000
  ---------------------------------------------------
  free energy    TOTEN  =       -44.40959806 eV

  energy without entropy =      -44.37346228  energy(sigma->0) =      -44.39153017


--------------------------------------------------------------------------------------------------------




--------------------------------------- Iteration      1(  28)  ---------------------------------------


    POTLOK:  cpu time      0.0458: real time      0.0464
    SETDIJ:  cpu time      0.0031: real time      0.0031
     EDDAV:  cpu time      3.6654: real time      3.6983
       DOS:  cpu time      0.0004: real time      0.0004
    CHARGE:  cpu time      0.1743: real time      0.1752
    MIXING:  cpu time      0.0032: real time      0.0033
    --------------------------------------------
      LOOP:  cpu time      3.8922: real time      3.9265

 eigenvalue-minimisations  :  3040
 total energy-change (2. order) :-0.2454455E-02  (-0.3846934E-05)
 number of electron     133.0000046 magnetization       0.0069680
 augmentation part       84.2879066 magnetization       0.0056790

 Broyden mixing:
  rms(total) = 0.11339E-02    rms(broyden)= 0.11338E-02
  rms(prec ) = 0.12176E-02
  weight for this iteration     100.00

 eigenvalues of (default mixing * dielectric matrix)
  average eigenvalue GAMMA=   2.8014
 31.0136  9.7511  5.2489  2.8018  2.5222  1.8025  1.4018  1.1937  1.0432  0.8425
  0.8425  0.7675  0.6888  0.6888  0.6174  0.5102  0.3265  0.3583  0.3583  0.4287
  0.4287  0.3933  0.4027

 Free energy of the ion-electron system (eV)
  ---------------------------------------------------
  alpha Z        PSCENC =       137.59429322
  Ewald energy   TEWEN  =    123930.80669556
  -Hartree energ DENC   =   -139352.44417785
  -exchange      EXHF   =         0.00000000
  -V(xc)+E(xc)   XCENC  =       536.55619827
  PAW double counting   =     15653.76018372   -16945.80274507
  entropy T*S    EENTRO =        -0.03612719
  eigenvalues    EBANDS =      -709.06388067
  atomic energy  EATOM  =     16704.21750749
  Solvation  Ecorr_sol  =         0.00000000
  ---------------------------------------------------
  free energy    TOTEN  =       -44.41205251 eV

  energy without entropy =      -44.37592532  energy(sigma->0) =      -44.39398892


--------------------------------------------------------------------------------------------------------




--------------------------------------- Iteration      1(  29)  ---------------------------------------


    POTLOK:  cpu time      0.0442: real time      0.0496
    SETDIJ:  cpu time      0.0031: real time      0.0031
     EDDAV:  cpu time      3.5933: real time      3.6202
       DOS:  cpu time      0.0004: real time      0.0004
    CHARGE:  cpu time      0.1529: real time      0.1538
    MIXING:  cpu time      0.0033: real time      0.0033
    --------------------------------------------
      LOOP:  cpu time      3.7973: real time      3.8304

 eigenvalue-minimisations  :  2944
 total energy-change (2. order) :-0.8525641E-03  (-0.1493482E-05)
 number of electron     133.0000046 magnetization       0.0038028
 augmentation part       84.2876248 magnetization       0.0031914

 Broyden mixing:
  rms(total) = 0.71822E-03    rms(broyden)= 0.71821E-03
  rms(prec ) = 0.81567E-03
  weight for this iteration     100.00

 eigenvalues of (default mixing * dielectric matrix)
  average eigenvalue GAMMA=   2.8520
 32.1018 10.4279  5.5734  3.2188  2.5688  2.0898  1.4253  1.4253  1.1153  0.9304
  0.8597  0.8597  0.7936  0.6933  0.6652  0.6193  0.3265  0.4285  0.4285  0.4184
  0.3938  0.3583  0.3583  0.3691

 Free energy of the ion-electron system (eV)
  ---------------------------------------------------
  alpha Z        PSCENC =       137.59429322
  Ewald energy   TEWEN  =    123930.80669556
  -Hartree energ DENC   =   -139352.48290529
  -exchange      EXHF   =         0.00000000
  -V(xc)+E(xc)   XCENC  =       536.55500772
  PAW double counting   =     15653.92962577   -16945.98397799
  entropy T*S    EENTRO =        -0.03612573
  eigenvalues    EBANDS =      -709.01302583
  atomic energy  EATOM  =     16704.21750749
  Solvation  Ecorr_sol  =         0.00000000
  ---------------------------------------------------
  free energy    TOTEN  =       -44.41290508 eV

  energy without entropy =      -44.37677935  energy(sigma->0) =      -44.39484221


--------------------------------------------------------------------------------------------------------




--------------------------------------- Iteration      1(  30)  ---------------------------------------


    POTLOK:  cpu time      0.0449: real time      0.0456
    SETDIJ:  cpu time      0.0031: real time      0.0031
     EDDAV:  cpu time      3.5026: real time      3.5290
       DOS:  cpu time      0.0018: real time      0.0018
    CHARGE:  cpu time      0.1489: real time      0.1496
    MIXING:  cpu time      0.0036: real time      0.0037
    --------------------------------------------
      LOOP:  cpu time      3.7049: real time      3.7327

 eigenvalue-minimisations  :  2816
 total energy-change (2. order) :-0.1012705E-02  (-0.1639212E-05)
 number of electron     133.0000046 magnetization       0.0018485
 augmentation part       84.2871749 magnetization       0.0017548

 Broyden mixing:
  rms(total) = 0.48203E-03    rms(broyden)= 0.48202E-03
  rms(prec ) = 0.53490E-03
  weight for this iteration     100.00

 eigenvalues of (default mixing * dielectric matrix)
  average eigenvalue GAMMA=   2.8189
 32.4222 10.6700  5.7026  3.3765  2.5564  2.2165  1.4749  1.4749  1.1116  1.1116
  0.8615  0.8615  0.7922  0.7922  0.6768  0.6768  0.6213  0.3265  0.4288  0.4288
  0.4158  0.3936  0.3583  0.3583  0.3620

 Free energy of the ion-electron system (eV)
  ---------------------------------------------------
  alpha Z        PSCENC =       137.59429322
  Ewald energy   TEWEN  =    123930.80669556
  -Hartree energ DENC   =   -139352.65321853
  -exchange      EXHF   =         0.00000000
  -V(xc)+E(xc)   XCENC  =       536.55466046
  PAW double counting   =     15653.99743841   -16946.05521655
  entropy T*S    EENTRO =        -0.03612892
  eigenvalues    EBANDS =      -708.83994892
  atomic energy  EATOM  =     16704.21750749
  Solvation  Ecorr_sol  =         0.00000000
  ---------------------------------------------------
  free energy    TOTEN  =       -44.41391778 eV

  energy without entropy =      -44.37778886  energy(sigma->0) =      -44.39585332


--------------------------------------------------------------------------------------------------------




--------------------------------------- Iteration      1(  31)  ---------------------------------------


    POTLOK:  cpu time      0.0433: real time      0.0438
    SETDIJ:  cpu time      0.0031: real time      0.0031
     EDDAV:  cpu time      3.6975: real time      3.7253
       DOS:  cpu time      0.0004: real time      0.0004
    CHARGE:  cpu time      0.1686: real time      0.1695
    MIXING:  cpu time      0.0037: real time      0.0037
    --------------------------------------------
      LOOP:  cpu time      3.9166: real time      3.9458

 eigenvalue-minimisations  :  3040
 total energy-change (2. order) :-0.4324653E-03  (-0.9297726E-06)
 number of electron     133.0000046 magnetization       0.0011241
 augmentation part       84.2872298 magnetization       0.0014232

 Broyden mixing:
  rms(total) = 0.35638E-03    rms(broyden)= 0.35638E-03
  rms(prec ) = 0.39147E-03
  weight for this iteration     100.00

 eigenvalues of (default mixing * dielectric matrix)
  average eigenvalue GAMMA=   2.8027
 32.5963 10.8369  5.9025  3.7543  2.5655  2.4813  1.8303  1.4215  1.1690  1.1690
  0.9036  0.9036  0.7966  0.7966  0.7064  0.6956  0.6456  0.6230  0.3265  0.4288
  0.4288  0.4164  0.3936  0.3583  0.3583  0.3621

 Free energy of the ion-electron system (eV)
  ---------------------------------------------------
  alpha Z        PSCENC =       137.59429322
  Ewald energy   TEWEN  =    123930.80669556
  -Hartree energ DENC   =   -139352.79115087
  -exchange      EXHF   =         0.00000000
  -V(xc)+E(xc)   XCENC  =       536.55491163
  PAW double counting   =     15653.81049640   -16945.85210819
  entropy T*S    EENTRO =        -0.03612679
  eigenvalues    EBANDS =      -708.71886870
  atomic energy  EATOM  =     16704.21750749
  Solvation  Ecorr_sol  =         0.00000000
  ---------------------------------------------------
  free energy    TOTEN  =       -44.41435025 eV

  energy without entropy =      -44.37822346  energy(sigma->0) =      -44.39628685


--------------------------------------------------------------------------------------------------------




--------------------------------------- Iteration      1(  32)  ---------------------------------------


    POTLOK:  cpu time      0.0467: real time      0.0472
    SETDIJ:  cpu time      0.0031: real time      0.0032
     EDDAV:  cpu time      3.6191: real time      3.6473
       DOS:  cpu time      0.0004: real time      0.0004
    CHARGE:  cpu time      0.1655: real time      0.1663
    MIXING:  cpu time      0.0044: real time      0.0045
    --------------------------------------------
      LOOP:  cpu time      3.8393: real time      3.8689

 eigenvalue-minimisations  :  2880
 total energy-change (2. order) :-0.2009619E-03  (-0.4697481E-06)
 number of electron     133.0000046 magnetization       0.0009191
 augmentation part       84.2874998 magnetization       0.0013752

 Broyden mixing:
  rms(total) = 0.23681E-03    rms(broyden)= 0.23681E-03
  rms(prec ) = 0.27001E-03
  weight for this iteration     100.00

 eigenvalues of (default mixing * dielectric matrix)
  average eigenvalue GAMMA=   2.7480
 32.6592 10.9371  5.9340  3.9205  2.5828  2.5178  1.8948  1.3655  1.2129  1.2129
  0.9208  0.9208  0.8447  0.8447  0.7328  0.7328  0.6392  0.6392  0.6107  0.3265
  0.4288  0.4288  0.4161  0.3936  0.3583  0.3583  0.3616

 Free energy of the ion-electron system (eV)
  ---------------------------------------------------
  alpha Z        PSCENC =       137.59429322
  Ewald energy   TEWEN  =    123930.80669556
  -Hartree energ DENC   =   -139352.88470255
  -exchange      EXHF   =         0.00000000
  -V(xc)+E(xc)   XCENC  =       536.55481516
  PAW double counting   =     15653.74008539   -16945.77412862
  entropy T*S    EENTRO =        -0.03612679
  eigenvalues    EBANDS =      -708.63299008
  atomic energy  EATOM  =     16704.21750749
  Solvation  Ecorr_sol  =         0.00000000
  ---------------------------------------------------
  free energy    TOTEN  =       -44.41455121 eV

  energy without entropy =      -44.37842442  energy(sigma->0) =      -44.39648781


--------------------------------------------------------------------------------------------------------




--------------------------------------- Iteration      1(  33)  ---------------------------------------


    POTLOK:  cpu time      0.0467: real time      0.0499
    SETDIJ:  cpu time      0.0031: real time      0.0031
     EDDAV:  cpu time      3.7360: real time      3.7636
       DOS:  cpu time      0.0004: real time      0.0004
    CHARGE:  cpu time      0.1607: real time      0.1615
    MIXING:  cpu time      0.0049: real time      0.0049
    --------------------------------------------
      LOOP:  cpu time      3.9519: real time      3.9834

 eigenvalue-minimisations  :  3008
 total energy-change (2. order) :-0.1602369E-03  (-0.1623090E-06)
 number of electron     133.0000046 magnetization       0.0000781
 augmentation part       84.2870575 magnetization       0.0005774

 Broyden mixing:
  rms(total) = 0.18979E-03    rms(broyden)= 0.18979E-03
  rms(prec ) = 0.20665E-03
  weight for this iteration     100.00

 eigenvalues of (default mixing * dielectric matrix)
  average eigenvalue GAMMA=   2.7309
 32.8139 11.0036  6.0210  4.2347  2.6540  2.6540  2.0523  1.4739  1.4739  1.1467
  1.1467  0.9227  0.9227  0.7746  0.7746  0.7268  0.7268  0.6334  0.6334  0.6020
  0.3265  0.4288  0.4288  0.4162  0.3936  0.3583  0.3583  0.3615

 Free energy of the ion-electron system (eV)
  ---------------------------------------------------
  alpha Z        PSCENC =       137.59429322
  Ewald energy   TEWEN  =    123930.80669556
  -Hartree energ DENC   =   -139353.01141810
  -exchange      EXHF   =         0.00000000
  -V(xc)+E(xc)   XCENC  =       536.55532338
  PAW double counting   =     15653.75796747   -16945.79577246
  entropy T*S    EENTRO =        -0.03612852
  eigenvalues    EBANDS =      -708.50317949
  atomic energy  EATOM  =     16704.21750749
  Solvation  Ecorr_sol  =         0.00000000
  ---------------------------------------------------
  free energy    TOTEN  =       -44.41471144 eV

  energy without entropy =      -44.37858293  energy(sigma->0) =      -44.39664719


--------------------------------------------------------------------------------------------------------




--------------------------------------- Iteration      1(  34)  ---------------------------------------


    POTLOK:  cpu time      0.0448: real time      0.0453
    SETDIJ:  cpu time      0.0045: real time      0.0045
     EDDAV:  cpu time      3.5027: real time      3.5294
       DOS:  cpu time      0.0004: real time      0.0004
    CHARGE:  cpu time      0.1634: real time      0.1643
    MIXING:  cpu time      0.0064: real time      0.0064
    --------------------------------------------
      LOOP:  cpu time      3.7222: real time      3.7503

 eigenvalue-minimisations  :  2752
 total energy-change (2. order) :-0.1524320E-03  (-0.1468891E-06)
 number of electron     133.0000046 magnetization       0.0000701
 augmentation part       84.2870241 magnetization       0.0006297

 Broyden mixing:
  rms(total) = 0.13429E-03    rms(broyden)= 0.13429E-03
  rms(prec ) = 0.14392E-03
  weight for this iteration     100.00

 eigenvalues of (default mixing * dielectric matrix)
  average eigenvalue GAMMA=   2.7360
 32.8550 11.0509  6.2716  4.9121  3.0461  2.6944  2.2778  1.8218  1.4032  1.1829
  1.1829  0.9252  0.9252  0.7779  0.7779  0.7728  0.7728  0.6897  0.6777  0.6350
  0.6204  0.3265  0.4288  0.4288  0.4162  0.3936  0.3583  0.3583  0.3615

 Free energy of the ion-electron system (eV)
  ---------------------------------------------------
  alpha Z        PSCENC =       137.59429322
  Ewald energy   TEWEN  =    123930.80669556
  -Hartree energ DENC   =   -139353.11088802
  -exchange      EXHF   =         0.00000000
  -V(xc)+E(xc)   XCENC  =       536.55529057
  PAW double counting   =     15653.72733803   -16945.76403147
  entropy T*S    EENTRO =        -0.03612726
  eigenvalues    EBANDS =      -708.40494200
  atomic energy  EATOM  =     16704.21750749
  Solvation  Ecorr_sol  =         0.00000000
  ---------------------------------------------------
  free energy    TOTEN  =       -44.41486388 eV

  energy without entropy =      -44.37873662  energy(sigma->0) =      -44.39680025


--------------------------------------------------------------------------------------------------------




--------------------------------------- Iteration      1(  35)  ---------------------------------------


    POTLOK:  cpu time      0.0445: real time      0.0449
    SETDIJ:  cpu time      0.0042: real time      0.0043
     EDDAV:  cpu time      3.3344: real time      3.3597
       DOS:  cpu time      0.0004: real time      0.0004
    --------------------------------------------
      LOOP:  cpu time      3.3835: real time      3.4093

 eigenvalue-minimisations  :  2656
 total energy-change (2. order) :-0.8118468E-04  (-0.7587614E-07)
 number of electron     133.0000046 magnetization       0.0000701
 augmentation part       84.2870241 magnetization       0.0006297

 Free energy of the ion-electron system (eV)
  ---------------------------------------------------
  alpha Z        PSCENC =       137.59429322
  Ewald energy   TEWEN  =    123930.80669556
  -Hartree energ DENC   =   -139353.18758096
  -exchange      EXHF   =         0.00000000
  -V(xc)+E(xc)   XCENC  =       536.55500079
  PAW double counting   =     15653.71403883   -16945.74917220
  entropy T*S    EENTRO =        -0.03612539
  eigenvalues    EBANDS =      -708.32960240
  atomic energy  EATOM  =     16704.21750749
  Solvation  Ecorr_sol  =         0.00000000
  ---------------------------------------------------
  free energy    TOTEN  =       -44.41494506 eV

  energy without entropy =      -44.37881967  energy(sigma->0) =      -44.39688237


--------------------------------------------------------------------------------------------------------




 average (electrostatic) potential at core
  the test charge radii are     0.9430  0.5201
  (the norm of the test charge is              1.0000)
       1 -73.4712       2 -73.5066       3 -73.5031       4 -73.5031       5 -73.7435
       6 -73.7435       7 -73.8039       8 -73.6628       9 -73.7837      10 -73.7837
      11 -73.4136      12 -73.4214      13 -39.3409
 
 
 
 E-fermi :  -2.5084     XC(G=0):  -2.8960     alpha+bet : -2.4952

 Fermi energy:        -2.5084275171

 spin component 1

 k-point     1 :       0.0000    0.0000    0.0000
  band No.  band energies     occupation 
      1     -11.1765      1.00000
      2      -9.5907      1.00000
      3      -8.0359      1.00000
      4      -7.3270      1.00000
      5      -7.1856      1.00000
      6      -7.1739      1.00000
      7      -7.1263      1.00000
      8      -7.0103      1.00000
      9      -6.9667      1.00000
     10      -6.8184      1.00000
     11      -6.6528      1.00000
     12      -6.5977      1.00000
     13      -6.5851      1.00000
     14      -6.5760      1.00000
     15      -6.5454      1.00000
     16      -6.2788      1.00000
     17      -5.9291      1.00000
     18      -5.8877      1.00000
     19      -5.6591      1.00000
     20      -5.5862      1.00000
     21      -5.5548      1.00000
     22      -5.4989      1.00000
     23      -5.4783      1.00000
     24      -5.4219      1.00000
     25      -5.4129      1.00000
     26      -5.3027      1.00000
     27      -5.2948      1.00000
     28      -5.2377      1.00000
     29      -5.2182      1.00000
     30      -5.2022      1.00000
     31      -5.1752      1.00000
     32      -5.1367      1.00000
     33      -5.1172      1.00000
     34      -5.1093      1.00000
     35      -4.9983      1.00000
     36      -4.9110      1.00000
     37      -4.7098      1.00000
     38      -4.6469      1.00000
     39      -4.6191      1.00000
     40      -4.5661      1.00000
     41      -4.5597      1.00000
     42      -4.5367      1.00000
     43      -4.5159      1.00000
     44      -4.3876      1.00000
     45      -4.3299      1.00000
     46      -4.3171      1.00000
     47      -4.1960      1.00000
     48      -4.1759      1.00000
     49      -4.1481      1.00000
     50      -4.1339      1.00000
     51      -4.0968      1.00000
     52      -4.0842      1.00000
     53      -4.0836      1.00000
     54      -4.0599      1.00000
     55      -4.0584      1.00000
     56      -4.0329      1.00000
     57      -4.0324      1.00000
     58      -3.9902      1.00000
     59      -3.8961      1.00000
     60      -3.8305      1.00000
     61      -3.8294      1.00000
     62      -3.8207      1.00000
     63      -3.8164      1.00000
     64      -3.2765      1.00000
     65      -2.4943      0.37220
     66      -2.4524      0.11151
     67      -2.4255      0.04427
     68      -1.6966      0.00000
     69      -1.3491      0.00000
     70      -1.2982      0.00000
     71      -1.0033      0.00000
     72      -0.9174      0.00000
     73      -0.9012      0.00000
     74       1.1729      0.00000
     75       1.7309      0.00000
     76       1.9011      0.00000
     77       2.0151      0.00000
     78       2.0715      0.00000
     79       2.2148      0.00000
     80       2.4260      0.00000
     81       2.6065      0.00000
     82       2.8036      0.00000
     83       2.9433      0.00000
     84       3.1310      0.00000
     85       3.5153      0.00000
     86       3.5608      0.00000
     87       3.7760      0.00000
     88       3.8734      0.00000
     89       3.9850      0.00000
     90       4.7993      0.00000
     91       4.8542      0.00000
     92       5.6165      0.00000
     93       6.3539      0.00000
     94       6.3898      0.00000
     95       6.5117      0.00000
     96       6.5337      0.00000

 k-point     2 :       0.2000    0.0000    0.0000
  band No.  band energies     occupation 
      1     -10.8633      1.00000
      2      -9.3363      1.00000
      3      -7.8668      1.00000
      4      -7.4803      1.00000
      5      -7.1939      1.00000
      6      -7.1043      1.00000
      7      -7.0485      1.00000
      8      -6.9887      1.00000
      9      -6.8786      1.00000
     10      -6.7399      1.00000
     11      -6.6089      1.00000
     12      -6.5440      1.00000
     13      -6.5016      1.00000
     14      -6.4332      1.00000
     15      -6.3982      1.00000
     16      -6.2101      1.00000
     17      -5.9163      1.00000
     18      -5.8787      1.00000
     19      -5.7483      1.00000
     20      -5.6287      1.00000
     21      -5.5358      1.00000
     22      -5.4984      1.00000
     23      -5.4898      1.00000
     24      -5.4510      1.00000
     25      -5.4213      1.00000
     26      -5.3813      1.00000
     27      -5.3310      1.00000
     28      -5.3082      1.00000
     29      -5.2583      1.00000
     30      -5.2053      1.00000
     31      -5.1782      1.00000
     32      -5.1634      1.00000
     33      -5.1568      1.00000
     34      -5.0845      1.00000
     35      -5.0421      1.00000
     36      -5.0221      1.00000
     37      -4.8100      1.00000
     38      -4.7492      1.00000
     39      -4.7176      1.00000
     40      -4.6468      1.00000
     41      -4.6190      1.00000
     42      -4.6069      1.00000
     43      -4.5506      1.00000
     44      -4.5439      1.00000
     45      -4.4517      1.00000
     46      -4.4019      1.00000
     47      -4.3872      1.00000
     48      -4.3285      1.00000
     49      -4.2931      1.00000
     50      -4.2366      1.00000
     51      -4.2300      1.00000
     52      -4.2080      1.00000
     53      -4.1777      1.00000
     54      -4.1659      1.00000
     55      -4.1217      1.00000
     56      -4.1111      1.00000
     57      -4.0951      1.00000
     58      -4.0704      1.00000
     59      -4.0290      1.00000
     60      -3.9776      1.00000
     61      -3.9555      1.00000
     62      -3.9408      1.00000
     63      -3.9193      1.00000
     64      -3.7107      1.00000
     65      -3.0490      1.00000
     66      -2.5602      0.87191
     67      -2.4991      0.41430
     68      -2.2205      0.00002
     69      -1.5610      0.00000
     70      -1.4429      0.00000
     71      -0.5345      0.00000
     72       0.0024      0.00000
     73       0.0835      0.00000
     74       1.5538      0.00000
     75       2.0090      0.00000
     76       2.3434      0.00000
     77       2.3835      0.00000
     78       2.5191      0.00000
     79       2.5997      0.00000
     80       2.8172      0.00000
     81       2.9135      0.00000
     82       3.0772      0.00000
     83       3.0951      0.00000
     84       3.3741      0.00000
     85       3.8222      0.00000
     86       3.9397      0.00000
     87       4.1457      0.00000
     88       4.4699      0.00000
     89       4.6295      0.00000
     90       5.1101      0.00000
     91       5.1587      0.00000
     92       5.7848      0.00000
     93       6.0938      0.00000
     94       6.3713      0.00000
     95       6.6043      0.00000
     96       6.6780      0.00000

 k-point     3 :       0.0000    0.2000    0.0000
  band No.  band energies     occupation 
      1     -10.8676      1.00000
      2      -9.3514      1.00000
      3      -7.9170      1.00000
      4      -7.4598      1.00000
      5      -7.1825      1.00000
      6      -7.0959      1.00000
      7      -7.0955      1.00000
      8      -6.9076      1.00000
      9      -6.8637      1.00000
     10      -6.7760      1.00000
     11      -6.5709      1.00000
     12      -6.5335      1.00000
     13      -6.5280      1.00000
     14      -6.4330      1.00000
     15      -6.3739      1.00000
     16      -6.2194      1.00000
     17      -5.9000      1.00000
     18      -5.8731      1.00000
     19      -5.6972      1.00000
     20      -5.6196      1.00000
     21      -5.5365      1.00000
     22      -5.5020      1.00000
     23      -5.4805      1.00000
     24      -5.4516      1.00000
     25      -5.4148      1.00000
     26      -5.3817      1.00000
     27      -5.3254      1.00000
     28      -5.3185      1.00000
     29      -5.2318      1.00000
     30      -5.2186      1.00000
     31      -5.1813      1.00000
     32      -5.1648      1.00000
     33      -5.1325      1.00000
     34      -5.1217      1.00000
     35      -5.0342      1.00000
     36      -4.9907      1.00000
     37      -4.7880      1.00000
     38      -4.7672      1.00000
     39      -4.7203      1.00000
     40      -4.7082      1.00000
     41      -4.6342      1.00000
     42      -4.6031      1.00000
     43      -4.5763      1.00000
     44      -4.5505      1.00000
     45      -4.4485      1.00000
     46      -4.4035      1.00000
     47      -4.3579      1.00000
     48      -4.3407      1.00000
     49      -4.2712      1.00000
     50      -4.2700      1.00000
     51      -4.2199      1.00000
     52      -4.2162      1.00000
     53      -4.1963      1.00000
     54      -4.1570      1.00000
     55      -4.1510      1.00000
     56      -4.1263      1.00000
     57      -4.0641      1.00000
     58      -4.0393      1.00000
     59      -4.0055      1.00000
     60      -3.9943      1.00000
     61      -3.9427      1.00000
     62      -3.9403      1.00000
     63      -3.8950      1.00000
     64      -3.7682      1.00000
     65      -3.0041      1.00000
     66      -2.6794      0.99823
     67      -2.5095      0.50957
     68      -2.2448      0.00006
     69      -1.6251      0.00000
     70      -1.4271      0.00000
     71      -0.4859      0.00000
     72      -0.0520      0.00000
     73       0.0983      0.00000
     74       1.7894      0.00000
     75       2.0323      0.00000
     76       2.2909      0.00000
     77       2.3843      0.00000
     78       2.5182      0.00000
     79       2.5867      0.00000
     80       2.9127      0.00000
     81       2.9678      0.00000
     82       3.0344      0.00000
     83       3.1143      0.00000
     84       3.1656      0.00000
     85       3.8221      0.00000
     86       3.9960      0.00000
     87       4.1941      0.00000
     88       4.5259      0.00000
     89       4.6430      0.00000
     90       5.0931      0.00000
     91       5.1254      0.00000
     92       5.5167      0.00000
     93       6.1860      0.00000
     94       6.3631      0.00000
     95       6.6128      0.00000
     96       6.6782      0.00000

 k-point     4 :       0.4000    0.0000    0.0000
  band No.  band energies     occupation 
      1      -9.9749      1.00000
      2      -8.8641      1.00000
      3      -8.4488      1.00000
      4      -7.5761      1.00000
      5      -7.1242      1.00000
      6      -6.9357      1.00000
      7      -6.9197      1.00000
      8      -6.7451      1.00000
      9      -6.6543      1.00000
     10      -6.6120      1.00000
     11      -6.4899      1.00000
     12      -6.3397      1.00000
     13      -6.3254      1.00000
     14      -6.1561      1.00000
     15      -6.1215      1.00000
     16      -6.0735      1.00000
     17      -5.8967      1.00000
     18      -5.8616      1.00000
     19      -5.8485      1.00000
     20      -5.8164      1.00000
     21      -5.7363      1.00000
     22      -5.7279      1.00000
     23      -5.7084      1.00000
     24      -5.5349      1.00000
     25      -5.4763      1.00000
     26      -5.3951      1.00000
     27      -5.3439      1.00000
     28      -5.3212      1.00000
     29      -5.2918      1.00000
     30      -5.2553      1.00000
     31      -5.2116      1.00000
     32      -5.1786      1.00000
     33      -5.1157      1.00000
     34      -5.1011      1.00000
     35      -5.0707      1.00000
     36      -5.0644      1.00000
     37      -5.0427      1.00000
     38      -4.9988      1.00000
     39      -4.9890      1.00000
     40      -4.9723      1.00000
     41      -4.9608      1.00000
     42      -4.8408      1.00000
     43      -4.7411      1.00000
     44      -4.7107      1.00000
     45      -4.6784      1.00000
     46      -4.6637      1.00000
     47      -4.6127      1.00000
     48      -4.5878      1.00000
     49      -4.5305      1.00000
     50      -4.5084      1.00000
     51      -4.4418      1.00000
     52      -4.4020      1.00000
     53      -4.3716      1.00000
     54      -4.3461      1.00000
     55      -4.3235      1.00000
     56      -4.2953      1.00000
     57      -4.2732      1.00000
     58      -4.1567      1.00000
     59      -4.1133      1.00000
     60      -4.0871      1.00000
     61      -4.0536      1.00000
     62      -4.0300      1.00000
     63      -3.9899      1.00000
     64      -3.9649      1.00000
     65      -3.0906      1.00000
     66      -2.5264      0.66065
     67      -2.4910      0.34380
     68      -2.0297      0.00000
     69      -1.4592      0.00000
     70      -1.3795      0.00000
     71      -0.7523      0.00000
     72       0.4700      0.00000
     73       0.9797      0.00000
     74       1.2357      0.00000
     75       2.7455      0.00000
     76       3.0073      0.00000
     77       3.3172      0.00000
     78       3.3864      0.00000
     79       3.4344      0.00000
     80       3.7082      0.00000
     81       3.8328      0.00000
     82       4.0017      0.00000
     83       4.1499      0.00000
     84       4.2844      0.00000
     85       4.7387      0.00000
     86       4.8410      0.00000
     87       4.8763      0.00000
     88       4.9608      0.00000
     89       5.0237      0.00000
     90       5.2553      0.00000
     91       5.3597      0.00000
     92       5.4596      0.00000
     93       5.8972      0.00000
     94       6.0113      0.00000
     95       6.0496      0.00000
     96       6.0625      0.00000

 k-point     5 :       0.0000    0.4000    0.0000
  band No.  band energies     occupation 
      1     -10.0062      1.00000
      2      -8.9660      1.00000
      3      -8.4023      1.00000
      4      -7.5803      1.00000
      5      -7.0191      1.00000
      6      -6.9348      1.00000
      7      -6.9181      1.00000
      8      -6.6844      1.00000
      9      -6.6467      1.00000
     10      -6.6383      1.00000
     11      -6.4256      1.00000
     12      -6.3435      1.00000
     13      -6.3381      1.00000
     14      -6.1630      1.00000
     15      -6.0774      1.00000
     16      -6.0657      1.00000
     17      -5.8941      1.00000
     18      -5.8598      1.00000
     19      -5.8114      1.00000
     20      -5.8086      1.00000
     21      -5.7453      1.00000
     22      -5.7272      1.00000
     23      -5.6455      1.00000
     24      -5.5383      1.00000
     25      -5.4743      1.00000
     26      -5.3792      1.00000
     27      -5.3571      1.00000
     28      -5.3174      1.00000
     29      -5.2483      1.00000
     30      -5.2369      1.00000
     31      -5.2027      1.00000
     32      -5.1643      1.00000
     33      -5.1556      1.00000
     34      -5.1169      1.00000
     35      -5.1023      1.00000
     36      -5.0677      1.00000
     37      -5.0361      1.00000
     38      -5.0128      1.00000
     39      -5.0024      1.00000
     40      -4.9815      1.00000
     41      -4.9636      1.00000
     42      -4.8157      1.00000
     43      -4.7970      1.00000
     44      -4.7616      1.00000
     45      -4.7151      1.00000
     46      -4.6369      1.00000
     47      -4.6039      1.00000
     48      -4.5945      1.00000
     49      -4.5729      1.00000
     50      -4.4801      1.00000
     51      -4.4789      1.00000
     52      -4.4281      1.00000
     53      -4.3694      1.00000
     54      -4.3404      1.00000
     55      -4.3010      1.00000
     56      -4.2997      1.00000
     57      -4.2623      1.00000
     58      -4.1947      1.00000
     59      -4.1052      1.00000
     60      -4.0633      1.00000
     61      -4.0329      1.00000
     62      -4.0270      1.00000
     63      -4.0138      1.00000
     64      -3.9529      1.00000
     65      -3.2337      1.00000
     66      -2.5252      0.65061
     67      -2.5234      0.63554
     68      -2.0639      0.00000
     69      -1.4576      0.00000
     70      -1.4065      0.00000
     71      -0.7378      0.00000
     72       0.5143      0.00000
     73       0.9700      0.00000
     74       1.2273      0.00000
     75       2.7774      0.00000
     76       3.2212      0.00000
     77       3.3256      0.00000
     78       3.3586      0.00000
     79       3.4343      0.00000
     80       3.8296      0.00000
     81       3.8781      0.00000
     82       4.0391      0.00000
     83       4.2298      0.00000
     84       4.2850      0.00000
     85       4.6768      0.00000
     86       4.7758      0.00000
     87       4.8617      0.00000
     88       4.9605      0.00000
     89       4.9996      0.00000
     90       5.2277      0.00000
     91       5.3599      0.00000
     92       5.4458      0.00000
     93       5.8585      0.00000
     94       6.0076      0.00000
     95       6.0573      0.00000
     96       6.0578      0.00000

 k-point     6 :       0.4000    0.2000    0.0000
  band No.  band energies     occupation 
      1     -10.2555      1.00000
      2      -8.9114      1.00000
      3      -7.8119      1.00000
      4      -7.7516      1.00000
      5      -7.5463      1.00000
      6      -6.9513      1.00000
      7      -6.9310      1.00000
      8      -6.8139      1.00000
      9      -6.7061      1.00000
     10      -6.5610      1.00000
     11      -6.4658      1.00000
     12      -6.4388      1.00000
     13      -6.3500      1.00000
     14      -6.2259      1.00000
     15      -6.1865      1.00000
     16      -6.1254      1.00000
     17      -5.9037      1.00000
     18      -5.8853      1.00000
     19      -5.8516      1.00000
     20      -5.8098      1.00000
     21      -5.6686      1.00000
     22      -5.6395      1.00000
     23      -5.5921      1.00000
     24      -5.5551      1.00000
     25      -5.4975      1.00000
     26      -5.3862      1.00000
     27      -5.3389      1.00000
     28      -5.3195      1.00000
     29      -5.3123      1.00000
     30      -5.2785      1.00000
     31      -5.2444      1.00000
     32      -5.1836      1.00000
     33      -5.1321      1.00000
     34      -5.1021      1.00000
     35      -5.0851      1.00000
     36      -5.0054      1.00000
     37      -4.9377      1.00000
     38      -4.9151      1.00000
     39      -4.8785      1.00000
     40      -4.8548      1.00000
     41      -4.8267      1.00000
     42      -4.8118      1.00000
     43      -4.7665      1.00000
     44      -4.6795      1.00000
     45      -4.6369      1.00000
     46      -4.6158      1.00000
     47      -4.6015      1.00000
     48      -4.5556      1.00000
     49      -4.5168      1.00000
     50      -4.4859      1.00000
     51      -4.4004      1.00000
     52      -4.3309      1.00000
     53      -4.2880      1.00000
     54      -4.2650      1.00000
     55      -4.1990      1.00000
     56      -4.1854      1.00000
     57      -4.1721      1.00000
     58      -4.1245      1.00000
     59      -4.1056      1.00000
     60      -4.0900      1.00000
     61      -4.0711      1.00000
     62      -4.0465      1.00000
     63      -3.7959      1.00000
     64      -3.7660      1.00000
     65      -3.4896      1.00000
     66      -3.1365      1.00000
     67      -3.0239      1.00000
     68      -1.5680      0.00000
     69      -0.8189      0.00000
     70      -0.7067      0.00000
     71      -0.6182      0.00000
     72      -0.0803      0.00000
     73       0.5996      0.00000
     74       1.5044      0.00000
     75       2.4691      0.00000
     76       2.5562      0.00000
     77       2.6003      0.00000
     78       2.9950      0.00000
     79       3.1294      0.00000
     80       3.3627      0.00000
     81       3.5310      0.00000
     82       3.6945      0.00000
     83       4.3833      0.00000
     84       4.4061      0.00000
     85       4.4507      0.00000
     86       4.4911      0.00000
     87       4.6254      0.00000
     88       5.2797      0.00000
     89       5.3573      0.00000
     90       5.6970      0.00000
     91       5.7320      0.00000
     92       5.8102      0.00000
     93       6.0854      0.00000
     94       6.1213      0.00000
     95       6.1669      0.00000
     96       6.1758      0.00000

 k-point     7 :       0.2000    0.4000    0.0000
  band No.  band energies     occupation 
      1     -10.2700      1.00000
      2      -8.9518      1.00000
      3      -7.8568      1.00000
      4      -7.7513      1.00000
      5      -7.4983      1.00000
      6      -6.9555      1.00000
      7      -6.9320      1.00000
      8      -6.7433      1.00000
      9      -6.6533      1.00000
     10      -6.6136      1.00000
     11      -6.4535      1.00000
     12      -6.4220      1.00000
     13      -6.3668      1.00000
     14      -6.2145      1.00000
     15      -6.1677      1.00000
     16      -6.0733      1.00000
     17      -5.9066      1.00000
     18      -5.8645      1.00000
     19      -5.8274      1.00000
     20      -5.7992      1.00000
     21      -5.6791      1.00000
     22      -5.6346      1.00000
     23      -5.5742      1.00000
     24      -5.5485      1.00000
     25      -5.4704      1.00000
     26      -5.4044      1.00000
     27      -5.3348      1.00000
     28      -5.3208      1.00000
     29      -5.3013      1.00000
     30      -5.2673      1.00000
     31      -5.2424      1.00000
     32      -5.1814      1.00000
     33      -5.1431      1.00000
     34      -5.1032      1.00000
     35      -5.0903      1.00000
     36      -4.9981      1.00000
     37      -4.9722      1.00000
     38      -4.9282      1.00000
     39      -4.8999      1.00000
     40      -4.8728      1.00000
     41      -4.8251      1.00000
     42      -4.7976      1.00000
     43      -4.7648      1.00000
     44      -4.7250      1.00000
     45      -4.6740      1.00000
     46      -4.6170      1.00000
     47      -4.5928      1.00000
     48      -4.5371      1.00000
     49      -4.5191      1.00000
     50      -4.4855      1.00000
     51      -4.4018      1.00000
     52      -4.3473      1.00000
     53      -4.3134      1.00000
     54      -4.2565      1.00000
     55      -4.2250      1.00000
     56      -4.1829      1.00000
     57      -4.1450      1.00000
     58      -4.1214      1.00000
     59      -4.1148      1.00000
     60      -4.0814      1.00000
     61      -4.0683      1.00000
     62      -4.0326      1.00000
     63      -3.8102      1.00000
     64      -3.7574      1.00000
     65      -3.5304      1.00000
     66      -3.1344      1.00000
     67      -3.0370      1.00000
     68      -1.6956      0.00000
     69      -0.7992      0.00000
     70      -0.6954      0.00000
     71      -0.6390      0.00000
     72      -0.1477      0.00000
     73       0.5285      0.00000
     74       1.8681      0.00000
     75       2.4480      0.00000
     76       2.5538      0.00000
     77       2.5877      0.00000
     78       2.9990      0.00000
     79       3.1299      0.00000
     80       3.5279      0.00000
     81       3.6578      0.00000
     82       3.8207      0.00000
     83       4.0724      0.00000
     84       4.4237      0.00000
     85       4.4628      0.00000
     86       4.5366      0.00000
     87       4.6205      0.00000
     88       5.1570      0.00000
     89       5.3716      0.00000
     90       5.5708      0.00000
     91       5.7240      0.00000
     92       5.7896      0.00000
     93       6.0191      0.00000
     94       6.1109      0.00000
     95       6.1538      0.00000
     96       6.1769      0.00000

 k-point     8 :      -0.4000    0.2000    0.0000
  band No.  band energies     occupation 
      1      -9.3212      1.00000
      2      -9.0171      1.00000
      3      -8.4229      1.00000
      4      -7.7984      1.00000
      5      -7.4056      1.00000
      6      -7.0880      1.00000
      7      -6.7746      1.00000
      8      -6.4772      1.00000
      9      -6.4429      1.00000
     10      -6.4190      1.00000
     11      -6.3822      1.00000
     12      -6.2274      1.00000
     13      -6.1741      1.00000
     14      -6.1675      1.00000
     15      -6.1278      1.00000
     16      -6.0139      1.00000
     17      -5.9660      1.00000
     18      -5.9416      1.00000
     19      -5.9248      1.00000
     20      -5.8870      1.00000
     21      -5.7824      1.00000
     22      -5.6729      1.00000
     23      -5.6533      1.00000
     24      -5.6053      1.00000
     25      -5.5450      1.00000
     26      -5.5043      1.00000
     27      -5.4867      1.00000
     28      -5.4611      1.00000
     29      -5.4478      1.00000
     30      -5.3781      1.00000
     31      -5.3227      1.00000
     32      -5.2546      1.00000
     33      -5.2041      1.00000
     34      -5.1898      1.00000
     35      -5.1585      1.00000
     36      -5.1260      1.00000
     37      -5.0987      1.00000
     38      -5.0896      1.00000
     39      -5.0055      1.00000
     40      -4.9793      1.00000
     41      -4.8917      1.00000
     42      -4.8351      1.00000
     43      -4.7409      1.00000
     44      -4.7015      1.00000
     45      -4.6834      1.00000
     46      -4.6453      1.00000
     47      -4.6039      1.00000
     48      -4.5894      1.00000
     49      -4.5358      1.00000
     50      -4.5039      1.00000
     51      -4.4290      1.00000
     52      -4.3857      1.00000
     53      -4.3718      1.00000
     54      -4.2971      1.00000
     55      -4.2841      1.00000
     56      -4.2687      1.00000
     57      -4.2197      1.00000
     58      -4.1871      1.00000
     59      -4.1567      1.00000
     60      -4.1320      1.00000
     61      -4.0947      1.00000
     62      -4.0757      1.00000
     63      -4.0495      1.00000
     64      -3.9911      1.00000
     65      -3.6992      1.00000
     66      -3.2486      1.00000
     67      -2.5485      0.81510
     68      -2.0467      0.00000
     69      -1.0759      0.00000
     70      -0.4554      0.00000
     71       0.0758      0.00000
     72       0.6319      0.00000
     73       0.9250      0.00000
     74       1.9176      0.00000
     75       2.3056      0.00000
     76       2.4732      0.00000
     77       3.3534      0.00000
     78       3.5893      0.00000
     79       3.6832      0.00000
     80       4.0519      0.00000
     81       4.2264      0.00000
     82       4.2626      0.00000
     83       4.3459      0.00000
     84       4.3547      0.00000
     85       4.6596      0.00000
     86       4.7347      0.00000
     87       4.7767      0.00000
     88       4.8775      0.00000
     89       4.8900      0.00000
     90       4.9742      0.00000
     91       5.6079      0.00000
     92       5.6683      0.00000
     93       5.6806      0.00000
     94       5.7757      0.00000
     95       5.7937      0.00000
     96       5.8780      0.00000

 k-point     9 :      -0.2000    0.4000    0.0000
  band No.  band energies     occupation 
      1      -9.4022      1.00000
      2      -9.0102      1.00000
      3      -8.3777      1.00000
      4      -7.8328      1.00000
      5      -7.4004      1.00000
      6      -6.9726      1.00000
      7      -6.8064      1.00000
      8      -6.4499      1.00000
      9      -6.4408      1.00000
     10      -6.4201      1.00000
     11      -6.3419      1.00000
     12      -6.2317      1.00000
     13      -6.1809      1.00000
     14      -6.1663      1.00000
     15      -6.1274      1.00000
     16      -6.0158      1.00000
     17      -5.9746      1.00000
     18      -5.9335      1.00000
     19      -5.8811      1.00000
     20      -5.8569      1.00000
     21      -5.8183      1.00000
     22      -5.6706      1.00000
     23      -5.6151      1.00000
     24      -5.5867      1.00000
     25      -5.5453      1.00000
     26      -5.5143      1.00000
     27      -5.4867      1.00000
     28      -5.4611      1.00000
     29      -5.4191      1.00000
     30      -5.3932      1.00000
     31      -5.3371      1.00000
     32      -5.3055      1.00000
     33      -5.2005      1.00000
     34      -5.1624      1.00000
     35      -5.1492      1.00000
     36      -5.1385      1.00000
     37      -5.1020      1.00000
     38      -5.0786      1.00000
     39      -5.0638      1.00000
     40      -4.9528      1.00000
     41      -4.8870      1.00000
     42      -4.8364      1.00000
     43      -4.7403      1.00000
     44      -4.7334      1.00000
     45      -4.6920      1.00000
     46      -4.6520      1.00000
     47      -4.6037      1.00000
     48      -4.5891      1.00000
     49      -4.5634      1.00000
     50      -4.4982      1.00000
     51      -4.4347      1.00000
     52      -4.4181      1.00000
     53      -4.3395      1.00000
     54      -4.3070      1.00000
     55      -4.2841      1.00000
     56      -4.2595      1.00000
     57      -4.2250      1.00000
     58      -4.1891      1.00000
     59      -4.1524      1.00000
     60      -4.1144      1.00000
     61      -4.0982      1.00000
     62      -4.0766      1.00000
     63      -4.0504      1.00000
     64      -3.9928      1.00000
     65      -3.7154      1.00000
     66      -3.2992      1.00000
     67      -2.6096      0.97695
     68      -2.0210      0.00000
     69      -1.0453      0.00000
     70      -0.4968      0.00000
     71       0.0076      0.00000
     72       0.6558      0.00000
     73       0.9126      0.00000
     74       2.0489      0.00000
     75       2.2841      0.00000
     76       2.4716      0.00000
     77       3.4460      0.00000
     78       3.6578      0.00000
     79       3.6863      0.00000
     80       4.1206      0.00000
     81       4.2147      0.00000
     82       4.2633      0.00000
     83       4.3448      0.00000
     84       4.3548      0.00000
     85       4.6884      0.00000
     86       4.7332      0.00000
     87       4.7763      0.00000
     88       4.8695      0.00000
     89       4.8868      0.00000
     90       4.9812      0.00000
     91       5.5060      0.00000
     92       5.6603      0.00000
     93       5.6807      0.00000
     94       5.7747      0.00000
     95       5.7994      0.00000
     96       5.8782      0.00000
 Fermi energy:        -2.5084275171

 spin component 2

 k-point     1 :       0.0000    0.0000    0.0000
  band No.  band energies     occupation 
      1     -11.1766      1.00000
      2      -9.5907      1.00000
      3      -8.0359      1.00000
      4      -7.3271      1.00000
      5      -7.1857      1.00000
      6      -7.1740      1.00000
      7      -7.1263      1.00000
      8      -7.0104      1.00000
      9      -6.9667      1.00000
     10      -6.8184      1.00000
     11      -6.6529      1.00000
     12      -6.5977      1.00000
     13      -6.5852      1.00000
     14      -6.5760      1.00000
     15      -6.5454      1.00000
     16      -6.2789      1.00000
     17      -5.9292      1.00000
     18      -5.8877      1.00000
     19      -5.6591      1.00000
     20      -5.5863      1.00000
     21      -5.5548      1.00000
     22      -5.4990      1.00000
     23      -5.4783      1.00000
     24      -5.4220      1.00000
     25      -5.4129      1.00000
     26      -5.3027      1.00000
     27      -5.2948      1.00000
     28      -5.2378      1.00000
     29      -5.2183      1.00000
     30      -5.2022      1.00000
     31      -5.1752      1.00000
     32      -5.1367      1.00000
     33      -5.1173      1.00000
     34      -5.1094      1.00000
     35      -4.9983      1.00000
     36      -4.9111      1.00000
     37      -4.7098      1.00000
     38      -4.6469      1.00000
     39      -4.6191      1.00000
     40      -4.5662      1.00000
     41      -4.5597      1.00000
     42      -4.5367      1.00000
     43      -4.5159      1.00000
     44      -4.3877      1.00000
     45      -4.3299      1.00000
     46      -4.3171      1.00000
     47      -4.1961      1.00000
     48      -4.1759      1.00000
     49      -4.1481      1.00000
     50      -4.1339      1.00000
     51      -4.0968      1.00000
     52      -4.0842      1.00000
     53      -4.0836      1.00000
     54      -4.0599      1.00000
     55      -4.0585      1.00000
     56      -4.0330      1.00000
     57      -4.0325      1.00000
     58      -3.9903      1.00000
     59      -3.8962      1.00000
     60      -3.8305      1.00000
     61      -3.8295      1.00000
     62      -3.8208      1.00000
     63      -3.8164      1.00000
     64      -3.2766      1.00000
     65      -2.4944      0.37296
     66      -2.4525      0.11184
     67      -2.4256      0.04442
     68      -1.6967      0.00000
     69      -1.3492      0.00000
     70      -1.2983      0.00000
     71      -1.0033      0.00000
     72      -0.9174      0.00000
     73      -0.9013      0.00000
     74       1.1728      0.00000
     75       1.7546      0.00000
     76       1.9011      0.00000
     77       2.0150      0.00000
     78       2.1417      0.00000
     79       2.4203      0.00000
     80       2.5463      0.00000
     81       2.8674      0.00000
     82       2.9432      0.00000
     83       3.0317      0.00000
     84       3.1310      0.00000
     85       3.5704      0.00000
     86       3.7473      0.00000
     87       3.8733      0.00000
     88       3.9451      0.00000
     89       3.9857      0.00000
     90       4.9851      0.00000
     91       5.0404      0.00000
     92       5.6454      0.00000
     93       6.5040      0.00000
     94       6.5337      0.00000
     95       6.5353      0.00000
     96       6.5769      0.00000

 k-point     2 :       0.2000    0.0000    0.0000
  band No.  band energies     occupation 
      1     -10.8634      1.00000
      2      -9.3364      1.00000
      3      -7.8669      1.00000
      4      -7.4804      1.00000
      5      -7.1939      1.00000
      6      -7.1044      1.00000
      7      -7.0485      1.00000
      8      -6.9887      1.00000
      9      -6.8786      1.00000
     10      -6.7400      1.00000
     11      -6.6089      1.00000
     12      -6.5441      1.00000
     13      -6.5016      1.00000
     14      -6.4332      1.00000
     15      -6.3982      1.00000
     16      -6.2102      1.00000
     17      -5.9163      1.00000
     18      -5.8787      1.00000
     19      -5.7484      1.00000
     20      -5.6288      1.00000
     21      -5.5359      1.00000
     22      -5.4985      1.00000
     23      -5.4899      1.00000
     24      -5.4510      1.00000
     25      -5.4213      1.00000
     26      -5.3814      1.00000
     27      -5.3310      1.00000
     28      -5.3083      1.00000
     29      -5.2584      1.00000
     30      -5.2053      1.00000
     31      -5.1782      1.00000
     32      -5.1634      1.00000
     33      -5.1569      1.00000
     34      -5.0845      1.00000
     35      -5.0421      1.00000
     36      -5.0221      1.00000
     37      -4.8101      1.00000
     38      -4.7493      1.00000
     39      -4.7176      1.00000
     40      -4.6468      1.00000
     41      -4.6190      1.00000
     42      -4.6069      1.00000
     43      -4.5506      1.00000
     44      -4.5439      1.00000
     45      -4.4518      1.00000
     46      -4.4020      1.00000
     47      -4.3873      1.00000
     48      -4.3285      1.00000
     49      -4.2932      1.00000
     50      -4.2366      1.00000
     51      -4.2301      1.00000
     52      -4.2080      1.00000
     53      -4.1777      1.00000
     54      -4.1660      1.00000
     55      -4.1218      1.00000
     56      -4.1111      1.00000
     57      -4.0952      1.00000
     58      -4.0705      1.00000
     59      -4.0290      1.00000
     60      -3.9776      1.00000
     61      -3.9556      1.00000
     62      -3.9408      1.00000
     63      -3.9193      1.00000
     64      -3.7108      1.00000
     65      -3.0491      1.00000
     66      -2.5603      0.87222
     67      -2.4991      0.41492
     68      -2.2206      0.00002
     69      -1.5610      0.00000
     70      -1.4430      0.00000
     71      -0.5346      0.00000
     72       0.0023      0.00000
     73       0.0834      0.00000
     74       1.5537      0.00000
     75       2.0312      0.00000
     76       2.3436      0.00000
     77       2.4528      0.00000
     78       2.5980      0.00000
     79       2.8104      0.00000
     80       2.8524      0.00000
     81       3.0774      0.00000
     82       3.1752      0.00000
     83       3.3156      0.00000
     84       3.3790      0.00000
     85       3.9937      0.00000
     86       4.0574      0.00000
     87       4.2706      0.00000
     88       4.4719      0.00000
     89       4.6298      0.00000
     90       5.3010      0.00000
     91       5.3413      0.00000
     92       5.8005      0.00000
     93       6.0942      0.00000
     94       6.3821      0.00000
     95       6.7525      0.00000
     96       6.8640      0.00000

 k-point     3 :       0.0000    0.2000    0.0000
  band No.  band energies     occupation 
      1     -10.8677      1.00000
      2      -9.3515      1.00000
      3      -7.9171      1.00000
      4      -7.4598      1.00000
      5      -7.1826      1.00000
      6      -7.0960      1.00000
      7      -7.0955      1.00000
      8      -6.9077      1.00000
      9      -6.8638      1.00000
     10      -6.7761      1.00000
     11      -6.5710      1.00000
     12      -6.5335      1.00000
     13      -6.5280      1.00000
     14      -6.4330      1.00000
     15      -6.3739      1.00000
     16      -6.2194      1.00000
     17      -5.9001      1.00000
     18      -5.8731      1.00000
     19      -5.6973      1.00000
     20      -5.6197      1.00000
     21      -5.5366      1.00000
     22      -5.5020      1.00000
     23      -5.4806      1.00000
     24      -5.4516      1.00000
     25      -5.4148      1.00000
     26      -5.3818      1.00000
     27      -5.3254      1.00000
     28      -5.3185      1.00000
     29      -5.2319      1.00000
     30      -5.2187      1.00000
     31      -5.1813      1.00000
     32      -5.1648      1.00000
     33      -5.1326      1.00000
     34      -5.1218      1.00000
     35      -5.0342      1.00000
     36      -4.9908      1.00000
     37      -4.7880      1.00000
     38      -4.7672      1.00000
     39      -4.7203      1.00000
     40      -4.7083      1.00000
     41      -4.6343      1.00000
     42      -4.6032      1.00000
     43      -4.5763      1.00000
     44      -4.5505      1.00000
     45      -4.4485      1.00000
     46      -4.4035      1.00000
     47      -4.3580      1.00000
     48      -4.3407      1.00000
     49      -4.2713      1.00000
     50      -4.2701      1.00000
     51      -4.2199      1.00000
     52      -4.2162      1.00000
     53      -4.1964      1.00000
     54      -4.1570      1.00000
     55      -4.1511      1.00000
     56      -4.1264      1.00000
     57      -4.0641      1.00000
     58      -4.0393      1.00000
     59      -4.0056      1.00000
     60      -3.9944      1.00000
     61      -3.9427      1.00000
     62      -3.9403      1.00000
     63      -3.8951      1.00000
     64      -3.7682      1.00000
     65      -3.0042      1.00000
     66      -2.6795      0.99823
     67      -2.5095      0.51027
     68      -2.2449      0.00006
     69      -1.6251      0.00000
     70      -1.4272      0.00000
     71      -0.4860      0.00000
     72      -0.0521      0.00000
     73       0.0982      0.00000
     74       1.7900      0.00000
     75       2.0546      0.00000
     76       2.2908      0.00000
     77       2.4537      0.00000
     78       2.5837      0.00000
     79       2.8395      0.00000
     80       2.9850      0.00000
     81       3.0344      0.00000
     82       3.1609      0.00000
     83       3.1786      0.00000
     84       3.3309      0.00000
     85       4.0484      0.00000
     86       4.0965      0.00000
     87       4.2786      0.00000
     88       4.5258      0.00000
     89       4.6437      0.00000
     90       5.2335      0.00000
     91       5.3250      0.00000
     92       5.5691      0.00000
     93       6.1860      0.00000
     94       6.3758      0.00000
     95       6.7643      0.00000
     96       6.8685      0.00000

 k-point     4 :       0.4000    0.0000    0.0000
  band No.  band energies     occupation 
      1      -9.9750      1.00000
      2      -8.8642      1.00000
      3      -8.4489      1.00000
      4      -7.5762      1.00000
      5      -7.1242      1.00000
      6      -6.9357      1.00000
      7      -6.9198      1.00000
      8      -6.7452      1.00000
      9      -6.6544      1.00000
     10      -6.6121      1.00000
     11      -6.4899      1.00000
     12      -6.3398      1.00000
     13      -6.3255      1.00000
     14      -6.1562      1.00000
     15      -6.1216      1.00000
     16      -6.0736      1.00000
     17      -5.8968      1.00000
     18      -5.8617      1.00000
     19      -5.8486      1.00000
     20      -5.8165      1.00000
     21      -5.7363      1.00000
     22      -5.7280      1.00000
     23      -5.7084      1.00000
     24      -5.5350      1.00000
     25      -5.4764      1.00000
     26      -5.3951      1.00000
     27      -5.3439      1.00000
     28      -5.3213      1.00000
     29      -5.2918      1.00000
     30      -5.2553      1.00000
     31      -5.2116      1.00000
     32      -5.1786      1.00000
     33      -5.1158      1.00000
     34      -5.1011      1.00000
     35      -5.0707      1.00000
     36      -5.0645      1.00000
     37      -5.0428      1.00000
     38      -4.9988      1.00000
     39      -4.9890      1.00000
     40      -4.9723      1.00000
     41      -4.9609      1.00000
     42      -4.8409      1.00000
     43      -4.7412      1.00000
     44      -4.7108      1.00000
     45      -4.6784      1.00000
     46      -4.6637      1.00000
     47      -4.6128      1.00000
     48      -4.5878      1.00000
     49      -4.5306      1.00000
     50      -4.5084      1.00000
     51      -4.4419      1.00000
     52      -4.4020      1.00000
     53      -4.3717      1.00000
     54      -4.3462      1.00000
     55      -4.3235      1.00000
     56      -4.2953      1.00000
     57      -4.2733      1.00000
     58      -4.1567      1.00000
     59      -4.1133      1.00000
     60      -4.0871      1.00000
     61      -4.0536      1.00000
     62      -4.0301      1.00000
     63      -3.9900      1.00000
     64      -3.9650      1.00000
     65      -3.0907      1.00000
     66      -2.5265      0.66116
     67      -2.4910      0.34429
     68      -2.0298      0.00000
     69      -1.4592      0.00000
     70      -1.3796      0.00000
     71      -0.7523      0.00000
     72       0.4699      0.00000
     73       0.9796      0.00000
     74       1.2356      0.00000
     75       2.7534      0.00000
     76       3.0192      0.00000
     77       3.3767      0.00000
     78       3.3950      0.00000
     79       3.6936      0.00000
     80       3.7778      0.00000
     81       4.0865      0.00000
     82       4.1676      0.00000
     83       4.2190      0.00000
     84       4.2857      0.00000
     85       4.8858      0.00000
     86       4.9643      0.00000
     87       4.9888      0.00000
     88       5.1200      0.00000
     89       5.2559      0.00000
     90       5.2788      0.00000
     91       5.6159      0.00000
     92       5.6648      0.00000
     93       5.9271      0.00000
     94       6.0435      0.00000
     95       6.1997      0.00000
     96       6.2366      0.00000

 k-point     5 :       0.0000    0.4000    0.0000
  band No.  band energies     occupation 
      1     -10.0063      1.00000
      2      -8.9661      1.00000
      3      -8.4024      1.00000
      4      -7.5804      1.00000
      5      -7.0191      1.00000
      6      -6.9349      1.00000
      7      -6.9182      1.00000
      8      -6.6844      1.00000
      9      -6.6468      1.00000
     10      -6.6383      1.00000
     11      -6.4256      1.00000
     12      -6.3435      1.00000
     13      -6.3381      1.00000
     14      -6.1631      1.00000
     15      -6.0775      1.00000
     16      -6.0657      1.00000
     17      -5.8941      1.00000
     18      -5.8599      1.00000
     19      -5.8115      1.00000
     20      -5.8087      1.00000
     21      -5.7453      1.00000
     22      -5.7273      1.00000
     23      -5.6455      1.00000
     24      -5.5383      1.00000
     25      -5.4744      1.00000
     26      -5.3793      1.00000
     27      -5.3572      1.00000
     28      -5.3174      1.00000
     29      -5.2484      1.00000
     30      -5.2369      1.00000
     31      -5.2027      1.00000
     32      -5.1643      1.00000
     33      -5.1557      1.00000
     34      -5.1169      1.00000
     35      -5.1023      1.00000
     36      -5.0677      1.00000
     37      -5.0361      1.00000
     38      -5.0129      1.00000
     39      -5.0025      1.00000
     40      -4.9815      1.00000
     41      -4.9637      1.00000
     42      -4.8157      1.00000
     43      -4.7971      1.00000
     44      -4.7617      1.00000
     45      -4.7152      1.00000
     46      -4.6369      1.00000
     47      -4.6039      1.00000
     48      -4.5945      1.00000
     49      -4.5729      1.00000
     50      -4.4801      1.00000
     51      -4.4789      1.00000
     52      -4.4281      1.00000
     53      -4.3694      1.00000
     54      -4.3404      1.00000
     55      -4.3010      1.00000
     56      -4.2998      1.00000
     57      -4.2624      1.00000
     58      -4.1947      1.00000
     59      -4.1052      1.00000
     60      -4.0634      1.00000
     61      -4.0330      1.00000
     62      -4.0270      1.00000
     63      -4.0139      1.00000
     64      -3.9529      1.00000
     65      -3.2337      1.00000
     66      -2.5253      0.65116
     67      -2.5235      0.63604
     68      -2.0640      0.00000
     69      -1.4576      0.00000
     70      -1.4066      0.00000
     71      -0.7378      0.00000
     72       0.5142      0.00000
     73       0.9699      0.00000
     74       1.2273      0.00000
     75       2.7895      0.00000
     76       3.2360      0.00000
     77       3.3585      0.00000
     78       3.3870      0.00000
     79       3.7447      0.00000
     80       3.9260      0.00000
     81       4.0928      0.00000
     82       4.2132      0.00000
     83       4.2298      0.00000
     84       4.3017      0.00000
     85       4.7522      0.00000
     86       4.9344      0.00000
     87       4.9861      0.00000
     88       5.1252      0.00000
     89       5.2276      0.00000
     90       5.2761      0.00000
     91       5.6081      0.00000
     92       5.6398      0.00000
     93       5.9641      0.00000
     94       6.0573      0.00000
     95       6.0657      0.00000
     96       6.2354      0.00000

 k-point     6 :       0.4000    0.2000    0.0000
  band No.  band energies     occupation 
      1     -10.2556      1.00000
      2      -8.9115      1.00000
      3      -7.8119      1.00000
      4      -7.7517      1.00000
      5      -7.5464      1.00000
      6      -6.9513      1.00000
      7      -6.9310      1.00000
      8      -6.8140      1.00000
      9      -6.7062      1.00000
     10      -6.5610      1.00000
     11      -6.4659      1.00000
     12      -6.4388      1.00000
     13      -6.3500      1.00000
     14      -6.2260      1.00000
     15      -6.1865      1.00000
     16      -6.1255      1.00000
     17      -5.9037      1.00000
     18      -5.8854      1.00000
     19      -5.8517      1.00000
     20      -5.8098      1.00000
     21      -5.6687      1.00000
     22      -5.6395      1.00000
     23      -5.5922      1.00000
     24      -5.5552      1.00000
     25      -5.4976      1.00000
     26      -5.3862      1.00000
     27      -5.3390      1.00000
     28      -5.3195      1.00000
     29      -5.3124      1.00000
     30      -5.2785      1.00000
     31      -5.2444      1.00000
     32      -5.1837      1.00000
     33      -5.1321      1.00000
     34      -5.1022      1.00000
     35      -5.0852      1.00000
     36      -5.0054      1.00000
     37      -4.9378      1.00000
     38      -4.9151      1.00000
     39      -4.8786      1.00000
     40      -4.8548      1.00000
     41      -4.8267      1.00000
     42      -4.8118      1.00000
     43      -4.7666      1.00000
     44      -4.6795      1.00000
     45      -4.6369      1.00000
     46      -4.6159      1.00000
     47      -4.6015      1.00000
     48      -4.5557      1.00000
     49      -4.5168      1.00000
     50      -4.4860      1.00000
     51      -4.4004      1.00000
     52      -4.3309      1.00000
     53      -4.2880      1.00000
     54      -4.2650      1.00000
     55      -4.1990      1.00000
     56      -4.1855      1.00000
     57      -4.1721      1.00000
     58      -4.1246      1.00000
     59      -4.1056      1.00000
     60      -4.0900      1.00000
     61      -4.0712      1.00000
     62      -4.0465      1.00000
     63      -3.7959      1.00000
     64      -3.7660      1.00000
     65      -3.4896      1.00000
     66      -3.1365      1.00000
     67      -3.0240      1.00000
     68      -1.5681      0.00000
     69      -0.8190      0.00000
     70      -0.7068      0.00000
     71      -0.6183      0.00000
     72      -0.0804      0.00000
     73       0.5995      0.00000
     74       1.5043      0.00000
     75       2.4714      0.00000
     76       2.5706      0.00000
     77       2.6005      0.00000
     78       3.0656      0.00000
     79       3.3583      0.00000
     80       3.4630      0.00000
     81       3.7919      0.00000
     82       3.9149      0.00000
     83       4.3934      0.00000
     84       4.4155      0.00000
     85       4.4914      0.00000
     86       4.6695      0.00000
     87       4.7966      0.00000
     88       5.2888      0.00000
     89       5.3645      0.00000
     90       5.7837      0.00000
     91       5.8936      0.00000
     92       5.9342      0.00000
     93       6.1581      0.00000
     94       6.1886      0.00000
     95       6.3235      0.00000
     96       6.4347      0.00000

 k-point     7 :       0.2000    0.4000    0.0000
  band No.  band energies     occupation 
      1     -10.2701      1.00000
      2      -8.9519      1.00000
      3      -7.8569      1.00000
      4      -7.7514      1.00000
      5      -7.4984      1.00000
      6      -6.9556      1.00000
      7      -6.9320      1.00000
      8      -6.7433      1.00000
      9      -6.6534      1.00000
     10      -6.6136      1.00000
     11      -6.4535      1.00000
     12      -6.4221      1.00000
     13      -6.3669      1.00000
     14      -6.2145      1.00000
     15      -6.1677      1.00000
     16      -6.0734      1.00000
     17      -5.9067      1.00000
     18      -5.8645      1.00000
     19      -5.8274      1.00000
     20      -5.7992      1.00000
     21      -5.6792      1.00000
     22      -5.6347      1.00000
     23      -5.5742      1.00000
     24      -5.5486      1.00000
     25      -5.4705      1.00000
     26      -5.4044      1.00000
     27      -5.3349      1.00000
     28      -5.3208      1.00000
     29      -5.3014      1.00000
     30      -5.2674      1.00000
     31      -5.2425      1.00000
     32      -5.1814      1.00000
     33      -5.1431      1.00000
     34      -5.1032      1.00000
     35      -5.0904      1.00000
     36      -4.9981      1.00000
     37      -4.9722      1.00000
     38      -4.9283      1.00000
     39      -4.8999      1.00000
     40      -4.8728      1.00000
     41      -4.8252      1.00000
     42      -4.7977      1.00000
     43      -4.7648      1.00000
     44      -4.7250      1.00000
     45      -4.6740      1.00000
     46      -4.6170      1.00000
     47      -4.5929      1.00000
     48      -4.5371      1.00000
     49      -4.5192      1.00000
     50      -4.4855      1.00000
     51      -4.4018      1.00000
     52      -4.3473      1.00000
     53      -4.3134      1.00000
     54      -4.2566      1.00000
     55      -4.2251      1.00000
     56      -4.1829      1.00000
     57      -4.1450      1.00000
     58      -4.1214      1.00000
     59      -4.1149      1.00000
     60      -4.0814      1.00000
     61      -4.0683      1.00000
     62      -4.0326      1.00000
     63      -3.8102      1.00000
     64      -3.7574      1.00000
     65      -3.5304      1.00000
     66      -3.1345      1.00000
     67      -3.0371      1.00000
     68      -1.6957      0.00000
     69      -0.7993      0.00000
     70      -0.6955      0.00000
     71      -0.6391      0.00000
     72      -0.1477      0.00000
     73       0.5284      0.00000
     74       1.8680      0.00000
     75       2.4486      0.00000
     76       2.5700      0.00000
     77       2.5882      0.00000
     78       3.0710      0.00000
     79       3.4476      0.00000
     80       3.7747      0.00000
     81       3.8110      0.00000
     82       3.8873      0.00000
     83       4.1043      0.00000
     84       4.4498      0.00000
     85       4.5363      0.00000
     86       4.6686      0.00000
     87       4.7820      0.00000
     88       5.1744      0.00000
     89       5.3787      0.00000
     90       5.6163      0.00000
     91       5.8877      0.00000
     92       5.9325      0.00000
     93       6.0967      0.00000
     94       6.1949      0.00000
     95       6.2178      0.00000
     96       6.4323      0.00000

 k-point     8 :      -0.4000    0.2000    0.0000
  band No.  band energies     occupation 
      1      -9.3213      1.00000
      2      -9.0172      1.00000
      3      -8.4230      1.00000
      4      -7.7985      1.00000
      5      -7.4057      1.00000
      6      -7.0881      1.00000
      7      -6.7746      1.00000
      8      -6.4772      1.00000
      9      -6.4430      1.00000
     10      -6.4190      1.00000
     11      -6.3822      1.00000
     12      -6.2274      1.00000
     13      -6.1741      1.00000
     14      -6.1676      1.00000
     15      -6.1278      1.00000
     16      -6.0139      1.00000
     17      -5.9660      1.00000
     18      -5.9417      1.00000
     19      -5.9249      1.00000
     20      -5.8870      1.00000
     21      -5.7824      1.00000
     22      -5.6730      1.00000
     23      -5.6533      1.00000
     24      -5.6054      1.00000
     25      -5.5451      1.00000
     26      -5.5043      1.00000
     27      -5.4867      1.00000
     28      -5.4611      1.00000
     29      -5.4478      1.00000
     30      -5.3782      1.00000
     31      -5.3227      1.00000
     32      -5.2546      1.00000
     33      -5.2041      1.00000
     34      -5.1899      1.00000
     35      -5.1585      1.00000
     36      -5.1261      1.00000
     37      -5.0988      1.00000
     38      -5.0896      1.00000
     39      -5.0055      1.00000
     40      -4.9793      1.00000
     41      -4.8918      1.00000
     42      -4.8351      1.00000
     43      -4.7409      1.00000
     44      -4.7015      1.00000
     45      -4.6835      1.00000
     46      -4.6453      1.00000
     47      -4.6039      1.00000
     48      -4.5894      1.00000
     49      -4.5358      1.00000
     50      -4.5039      1.00000
     51      -4.4290      1.00000
     52      -4.3857      1.00000
     53      -4.3718      1.00000
     54      -4.2972      1.00000
     55      -4.2842      1.00000
     56      -4.2688      1.00000
     57      -4.2198      1.00000
     58      -4.1871      1.00000
     59      -4.1567      1.00000
     60      -4.1320      1.00000
     61      -4.0947      1.00000
     62      -4.0757      1.00000
     63      -4.0496      1.00000
     64      -3.9911      1.00000
     65      -3.6993      1.00000
     66      -3.2487      1.00000
     67      -2.5485      0.81546
     68      -2.0468      0.00000
     69      -1.0760      0.00000
     70      -0.4554      0.00000
     71       0.0757      0.00000
     72       0.6318      0.00000
     73       0.9250      0.00000
     74       1.9175      0.00000
     75       2.3055      0.00000
     76       2.4731      0.00000
     77       3.3536      0.00000
     78       3.6004      0.00000
     79       3.6951      0.00000
     80       4.0549      0.00000
     81       4.2862      0.00000
     82       4.3487      0.00000
     83       4.6259      0.00000
     84       4.6723      0.00000
     85       4.7127      0.00000
     86       4.9511      0.00000
     87       5.0167      0.00000
     88       5.0323      0.00000
     89       5.0940      0.00000
     90       5.1086      0.00000
     91       5.7315      0.00000
     92       5.8436      0.00000
     93       5.8956      0.00000
     94       5.9062      0.00000
     95       5.9792      0.00000
     96       6.0618      0.00000

 k-point     9 :      -0.2000    0.4000    0.0000
  band No.  band energies     occupation 
      1      -9.4023      1.00000
      2      -9.0103      1.00000
      3      -8.3777      1.00000
      4      -7.8329      1.00000
      5      -7.4004      1.00000
      6      -6.9726      1.00000
      7      -6.8064      1.00000
      8      -6.4499      1.00000
      9      -6.4408      1.00000
     10      -6.4201      1.00000
     11      -6.3420      1.00000
     12      -6.2317      1.00000
     13      -6.1810      1.00000
     14      -6.1664      1.00000
     15      -6.1275      1.00000
     16      -6.0159      1.00000
     17      -5.9747      1.00000
     18      -5.9336      1.00000
     19      -5.8811      1.00000
     20      -5.8569      1.00000
     21      -5.8183      1.00000
     22      -5.6706      1.00000
     23      -5.6152      1.00000
     24      -5.5867      1.00000
     25      -5.5454      1.00000
     26      -5.5144      1.00000
     27      -5.4867      1.00000
     28      -5.4612      1.00000
     29      -5.4191      1.00000
     30      -5.3932      1.00000
     31      -5.3372      1.00000
     32      -5.3055      1.00000
     33      -5.2005      1.00000
     34      -5.1624      1.00000
     35      -5.1493      1.00000
     36      -5.1385      1.00000
     37      -5.1020      1.00000
     38      -5.0786      1.00000
     39      -5.0638      1.00000
     40      -4.9528      1.00000
     41      -4.8870      1.00000
     42      -4.8364      1.00000
     43      -4.7404      1.00000
     44      -4.7335      1.00000
     45      -4.6920      1.00000
     46      -4.6521      1.00000
     47      -4.6038      1.00000
     48      -4.5891      1.00000
     49      -4.5635      1.00000
     50      -4.4982      1.00000
     51      -4.4347      1.00000
     52      -4.4182      1.00000
     53      -4.3396      1.00000
     54      -4.3070      1.00000
     55      -4.2841      1.00000
     56      -4.2596      1.00000
     57      -4.2250      1.00000
     58      -4.1892      1.00000
     59      -4.1524      1.00000
     60      -4.1144      1.00000
     61      -4.0982      1.00000
     62      -4.0766      1.00000
     63      -4.0504      1.00000
     64      -3.9928      1.00000
     65      -3.7154      1.00000
     66      -3.2993      1.00000
     67      -2.6097      0.97700
     68      -2.0210      0.00000
     69      -1.0454      0.00000
     70      -0.4968      0.00000
     71       0.0075      0.00000
     72       0.6557      0.00000
     73       0.9126      0.00000
     74       2.0489      0.00000
     75       2.2840      0.00000
     76       2.4715      0.00000
     77       3.4489      0.00000
     78       3.6655      0.00000
     79       3.6985      0.00000
     80       4.1255      0.00000
     81       4.2741      0.00000
     82       4.3488      0.00000
     83       4.6297      0.00000
     84       4.6731      0.00000
     85       4.7411      0.00000
     86       4.9518      0.00000
     87       5.0077      0.00000
     88       5.0322      0.00000
     89       5.0711      0.00000
     90       5.1103      0.00000
     91       5.6327      0.00000
     92       5.8436      0.00000
     93       5.8968      0.00000
     94       5.9069      0.00000
     95       5.9860      0.00000
     96       6.1048      0.00000


--------------------------------------------------------------------------------------------------------


 soft charge-density along one line, spin component           1
         0         1         2         3         4         5         6         7         8         9
 total charge-density along one line
 
 soft charge-density along one line, spin component           2
         0         1         2         3         4         5         6         7         8         9
 total charge-density along one line
 
 pseudopotential strength for first ion, spin component:           1
-10.027  -0.000  -0.000  -0.004  -0.000   0.664   0.000   0.000
 -0.000  -9.982  -0.002   0.000  -0.004   0.000   0.628   0.001
 -0.000  -0.002  -9.974  -0.000   0.001   0.000   0.001   0.621
 -0.004   0.000  -0.000  -9.985  -0.000   0.003  -0.000   0.000
 -0.000  -0.004   0.001  -0.000 -10.027   0.000   0.003  -0.001
  0.664   0.000   0.000   0.003   0.000   6.521  -0.000  -0.000
  0.000   0.628   0.001  -0.000   0.003  -0.000   6.546  -0.001
  0.000   0.001   0.621   0.000  -0.001  -0.000  -0.001   6.552
  0.003  -0.000   0.000   0.630   0.000  -0.002   0.000  -0.000
  0.000   0.003  -0.001   0.000   0.664  -0.000  -0.002   0.001
 -0.000   0.001  -0.008   0.000   0.000  -0.000  -0.000   0.002
 -0.000   0.001  -0.015   0.000   0.001  -0.000  -0.000   0.004
  0.000  -0.008  -0.002  -0.000  -0.003   0.000   0.010   0.001
 -0.000   0.003  -0.008  -0.000  -0.000  -0.000  -0.002   0.009
  0.003  -0.000  -0.000  -0.008   0.000  -0.002  -0.000  -0.000
  0.000  -0.010  -0.002   0.000  -0.003   0.000   0.013   0.001
  0.000   0.003  -0.009   0.000  -0.000  -0.000  -0.002   0.012
  0.004   0.000  -0.000  -0.010   0.000  -0.002  -0.000  -0.000
 pseudopotential strength for first ion, spin component:           2
-10.027  -0.000  -0.000  -0.004  -0.000   0.664   0.000   0.000
 -0.000  -9.982  -0.002   0.000  -0.004   0.000   0.628   0.001
 -0.000  -0.002  -9.974  -0.000   0.001   0.000   0.001   0.621
 -0.004   0.000  -0.000  -9.985  -0.000   0.003  -0.000   0.000
 -0.000  -0.004   0.001  -0.000 -10.027   0.000   0.003  -0.001
  0.664   0.000   0.000   0.003   0.000   6.521  -0.000  -0.000
  0.000   0.628   0.001  -0.000   0.003  -0.000   6.546  -0.001
  0.000   0.001   0.621   0.000  -0.001  -0.000  -0.001   6.552
  0.003  -0.000   0.000   0.630   0.000  -0.002   0.000  -0.000
  0.000   0.003  -0.001   0.000   0.664  -0.000  -0.002   0.001
 -0.000   0.001  -0.008   0.000   0.000  -0.000  -0.000   0.002
 -0.000   0.001  -0.015   0.000   0.001  -0.000  -0.000   0.004
  0.000  -0.008  -0.002  -0.000  -0.003   0.000   0.010   0.001
 -0.000   0.003  -0.008  -0.000  -0.000  -0.000  -0.002   0.009
  0.003  -0.000  -0.000  -0.008   0.000  -0.002  -0.000  -0.000
  0.000  -0.010  -0.002   0.000  -0.003   0.000   0.013   0.001
  0.000   0.003  -0.009   0.000  -0.000  -0.000  -0.002   0.012
  0.004   0.000  -0.000  -0.010   0.000  -0.002  -0.000  -0.000
 total augmentation occupancy for first ion, spin component:           1
  1.906   0.000  -0.000  -0.005   0.000  -0.016  -0.000   0.000   0.005   0.000   0.000   0.000  -0.000   0.000   0.004   0.000
  0.000   1.923  -0.004   0.000  -0.005  -0.000  -0.033   0.001  -0.000   0.005  -0.008  -0.001   0.005   0.002   0.000  -0.007
 -0.000  -0.004   1.927   0.000   0.000   0.000   0.001  -0.030   0.000  -0.000   0.011   0.012  -0.002   0.042  -0.000  -0.001
 -0.005   0.000   0.000   1.921  -0.000   0.005  -0.000   0.000  -0.032   0.000  -0.000  -0.000   0.000   0.000   0.005  -0.000
  0.000  -0.005   0.000  -0.000   1.906   0.000   0.005  -0.000   0.000  -0.016  -0.003  -0.000   0.006   0.000   0.000  -0.002
 -0.016  -0.000   0.000   0.005   0.000   0.014   0.000  -0.000   0.000   0.000   0.000   0.000  -0.000   0.000   0.003   0.000
 -0.000  -0.033   0.001  -0.000   0.005   0.000   0.010  -0.000   0.000   0.000   0.002   0.000   0.017  -0.001   0.000  -0.001
  0.000   0.001  -0.030   0.000  -0.000  -0.000  -0.000   0.014  -0.000   0.000  -0.047   0.002   0.001   0.025   0.000   0.000
  0.005  -0.000   0.000  -0.032   0.000   0.000   0.000  -0.000   0.009   0.000   0.000   0.000   0.000   0.000   0.017  -0.000
  0.000   0.005  -0.000   0.000  -0.016   0.000   0.000   0.000   0.000   0.014   0.001   0.000   0.003  -0.000   0.000  -0.000
  0.000  -0.008   0.011  -0.000  -0.003   0.000   0.002  -0.047   0.000   0.001   1.716  -0.133  -0.005   0.121   0.000   0.000
  0.000  -0.001   0.012  -0.000  -0.000   0.000   0.000   0.002   0.000   0.000  -0.133   0.017  -0.001  -0.023   0.000  -0.000
 -0.000   0.005  -0.002   0.000   0.006  -0.000   0.017   0.001   0.000   0.003  -0.005  -0.001   0.207   0.004   0.000  -0.013
  0.000   0.002   0.042   0.000   0.000   0.000  -0.001   0.025   0.000  -0.000   0.121  -0.023   0.004   0.130   0.000  -0.000
  0.004   0.000  -0.000   0.005   0.000   0.003   0.000   0.000   0.017   0.000   0.000   0.000   0.000   0.000   0.210  -0.000
  0.000  -0.007  -0.001  -0.000  -0.002   0.000  -0.001   0.000  -0.000  -0.000   0.000  -0.000  -0.013  -0.000  -0.000   0.001
  0.000   0.002  -0.011   0.000  -0.000   0.000  -0.000  -0.001  -0.000   0.000  -0.018   0.002  -0.000  -0.008   0.000  -0.000
  0.001  -0.000  -0.000  -0.007  -0.000  -0.000  -0.000   0.000  -0.001  -0.000   0.000   0.000  -0.000   0.000  -0.013   0.000
 total augmentation occupancy for first ion, spin component:           2
 -0.000   0.000   0.000   0.000   0.000   0.000   0.000   0.000  -0.000   0.000   0.000   0.000   0.000  -0.000  -0.000   0.000
  0.000  -0.000   0.000  -0.000   0.000   0.000  -0.000  -0.000  -0.000  -0.000   0.000  -0.000   0.000  -0.000   0.000  -0.000
  0.000   0.000  -0.000   0.000  -0.000   0.000  -0.000   0.000   0.000   0.000  -0.000   0.000  -0.000   0.000   0.000   0.000
  0.000  -0.000   0.000  -0.000   0.000  -0.000   0.000   0.000  -0.000   0.000   0.000   0.000   0.000   0.000   0.000  -0.000
  0.000   0.000  -0.000   0.000  -0.000   0.000  -0.000   0.000   0.000  -0.000   0.000  -0.000  -0.000   0.000  -0.000   0.000
  0.000   0.000   0.000  -0.000   0.000  -0.000   0.000   0.000   0.000   0.000   0.000   0.000   0.000   0.000   0.000   0.000
  0.000  -0.000  -0.000   0.000  -0.000   0.000  -0.000   0.000   0.000   0.000   0.000  -0.000  -0.000   0.000  -0.000   0.000
  0.000  -0.000   0.000   0.000   0.000   0.000   0.000  -0.000   0.000  -0.000  -0.000  -0.000   0.000  -0.000   0.000  -0.000
 -0.000  -0.000   0.000  -0.000   0.000   0.000   0.000   0.000  -0.000   0.000   0.000   0.000   0.000   0.000  -0.000   0.000
  0.000  -0.000   0.000   0.000  -0.000   0.000   0.000  -0.000   0.000  -0.000  -0.000  -0.000   0.000  -0.000   0.000  -0.000
  0.000   0.000  -0.000   0.000   0.000   0.000   0.000  -0.000   0.000  -0.000  -0.000   0.000   0.000   0.000   0.000  -0.000
  0.000  -0.000   0.000   0.000  -0.000   0.000  -0.000  -0.000   0.000  -0.000   0.000  -0.000  -0.000   0.000   0.000   0.000
  0.000   0.000  -0.000   0.000  -0.000   0.000  -0.000   0.000   0.000   0.000   0.000  -0.000  -0.000   0.000  -0.000   0.000
 -0.000  -0.000   0.000   0.000   0.000   0.000   0.000  -0.000   0.000  -0.000   0.000   0.000   0.000  -0.000   0.000  -0.000
 -0.000   0.000   0.000   0.000  -0.000   0.000  -0.000   0.000  -0.000   0.000   0.000   0.000  -0.000   0.000  -0.000   0.000
  0.000  -0.000   0.000  -0.000   0.000   0.000   0.000  -0.000   0.000  -0.000  -0.000   0.000   0.000  -0.000   0.000   0.000
  0.000   0.000  -0.000   0.000  -0.000   0.000  -0.000   0.000   0.000   0.000  -0.000   0.000  -0.000  -0.000  -0.000   0.000
  0.000  -0.000  -0.000  -0.000   0.000  -0.000   0.000   0.000  -0.000  -0.000   0.000   0.000   0.000   0.000   0.000   0.000


------------------------ aborting loop because EDIFF is reached ----------------------------------------


    CHARGE:  cpu time      0.1579: real time      0.1588
    FORLOC:  cpu time      0.0023: real time      0.0024
    FORNL :  cpu time      0.4114: real time      0.4149
    STRESS:  cpu time      2.8216: real time      2.8480
    FORCOR:  cpu time      0.0381: real time      0.0383
    FORHAR:  cpu time      0.0044: real time      0.0045
    MIXING:  cpu time      0.0048: real time      0.0048
    OFIELD:  cpu time      0.0000: real time      0.0000

 ---------------------------------------------------------------------------------------------

         DFTD3 V3.0 Rev 1        
 IVDW         = 12
 DF pbe       
 parameters
 VDW_S6       =    1.0000
 VDW_S8       =    0.7875
 VDW_A1       =    0.4289
 VDW_A2       =    4.4407
 k1-k3        =   16.0000    1.3333   -4.0000
 VDW_RADIUS   =   50.2022 A
 VDW_CNRADIUS =   21.1671 A
 Edisp (eV)   -4.67542

 E6    (eV) :    -2.5849
 E8    (eV) :    -2.0905
 % E8        : 44.71
    FORVDW:  cpu time      0.0139: real time      0.0140

  FORCE on cell =-STRESS in cart. coord.  units (eV):
  Direction    XX          YY          ZZ          XY          YZ          ZX
  --------------------------------------------------------------------------------------
  Alpha Z   137.59429   137.59429   137.59429
  Ewald  132733.20839132687.95657************    -0.00000     0.26001    -0.00000
  Hartree136604.55009136586.22505************     0.00000     0.26690    -0.00000
  E(xc)    -772.83456  -772.97585  -774.99971    -0.00012     0.00146     0.00000
  Local  ************************273998.01652     0.00203    -0.59941     0.00000
  n-local  -260.67572  -261.70914  -266.36300    -3.91472     0.00567    -0.00955
  augment  1132.46684  1133.96543  1141.52192    -0.00182     0.00411     0.00005
  Kinetic  1078.35133  1081.04603  1092.25777     0.67569     0.12263     0.61458
  Fock        0.00000     0.00000     0.00000     0.00000     0.00000     0.00000
  vdW        -4.95331    -4.94366    -2.45892     0.00000     0.00054    -0.00000
  -------------------------------------------------------------------------------------
  Total      -6.96246    -7.59248    -2.31330     0.00000     0.06191     0.00000
  in kB     -14.42105   -15.72599    -4.79145     0.00000     0.12822     0.00000
  external pressure =      -11.65 kB  Pullay stress =        0.00 kB


 VOLUME and BASIS-vectors are now :
 -----------------------------------------------------------------------------
  energy-cutoff  :      600.00
  volume of cell :      773.53
      direct lattice vectors                 reciprocal lattice vectors
     5.112382028  0.000000000  0.000000000     0.195603536 -0.112931754  0.000000000
     2.556191014  4.427452710  0.000000000     0.000000000  0.225863508  0.000000000
     0.000000000  0.000000000 34.174242446     0.000000000  0.000000000  0.029261804

  length of vectors
     5.112382028  5.112382028 34.174242446     0.225863508  0.225863508  0.029261804


 FORCES acting on ions
    electron-ion (+dipol)            ewald-force                    non-local-force                 convergence-correction
 -----------------------------------------------------------------------------------------------
   0.241E-05 -.530E+00 0.318E+04   0.309E-11 0.731E-01 -.318E+04   -.409E-17 0.366E+00 -.102E+01   -.127E-08 0.155E-04 0.747E-03
   0.254E-05 0.603E-01 0.318E+04   0.313E-11 0.191E-01 -.318E+04   0.506E-17 -.877E-01 -.223E+01   -.192E-08 -.388E-03 0.530E-03
   0.443E+00 0.300E+00 0.318E+04   -.458E-01 -.460E-01 -.318E+04   -.321E+00 -.211E+00 -.221E+01   -.237E-03 0.158E-03 0.464E-03
   -.443E+00 0.300E+00 0.318E+04   0.458E-01 -.460E-01 -.318E+04   0.321E+00 -.211E+00 -.221E+01   0.237E-03 0.158E-03 0.464E-03
   0.127E+01 -.117E+01 0.357E+02   -.851E+00 0.871E+00 -.354E+02   -.421E+00 0.313E+00 -.374E+00   0.635E-03 -.494E-03 -.160E-02
   -.127E+01 -.117E+01 0.357E+02   0.851E+00 0.871E+00 -.354E+02   0.421E+00 0.313E+00 -.374E+00   -.635E-03 -.494E-03 -.160E-02
   -.229E-05 0.414E+00 0.354E+02   -.477E-11 -.329E+00 -.347E+02   -.909E-19 -.510E-01 -.559E+00   0.174E-08 0.775E-04 -.209E-02
   -.221E-05 0.221E+01 0.386E+02   -.446E-11 -.150E+01 -.382E+02   -.287E-16 -.774E+00 -.626E+00   0.419E-08 0.922E-03 -.136E-02
   0.361E+02 -.717E-01 -.310E+04   -.371E+02 0.111E-11 0.310E+04   0.860E+00 0.685E-01 0.113E+00   0.192E-02 0.161E-04 -.983E-03
   -.361E+02 -.717E-01 -.310E+04   0.371E+02 0.111E-11 0.310E+04   -.860E+00 0.685E-01 0.113E+00   -.192E-02 0.161E-04 -.983E-03
   0.474E-06 -.875E+01 -.312E+04   0.148E-11 0.109E+02 0.312E+04   0.370E-16 -.222E+01 0.311E+01   -.178E-08 -.458E-03 -.152E-02
   -.442E-06 0.876E+01 -.312E+04   0.154E-11 -.109E+02 0.312E+04   0.207E-16 0.223E+01 0.313E+01   0.269E-08 0.563E-03 -.195E-02
   -.210E-07 -.868E-01 -.412E+03   0.355E-13 0.831E-01 0.413E+03   -.160E-19 0.348E-02 -.153E+01   -.619E-11 0.223E-04 0.105E-03
 -----------------------------------------------------------------------------------------------
   0.573E-06 0.188E+00 0.467E+01   -.995E-13 0.000E+00 0.114E-12   0.555E-16 -.188E+00 -.466E+01   -.213E-09 0.114E-03 -.978E-02
 
 
 POSITION                                       TOTAL-FORCE (eV/Angst)
 -----------------------------------------------------------------------------------
      1.27810      0.73791     15.00000        -0.000000     -0.091007      0.235268
      3.83429      0.73791     15.00000         0.000000     -0.008693      0.079667
      2.55619      2.95164     15.00000         0.075774      0.042787      0.136014
      5.11238      2.95164     15.00000        -0.075774      0.042787      0.136014
      5.11238      1.47582     17.08712         0.000514      0.010070      0.010302
      2.55619      1.47582     17.08712        -0.000514      0.010070      0.010302
      6.39048      3.68954     17.08712         0.000000      0.034739      0.208804
      3.83429      3.68954     17.08712         0.000000     -0.056321     -0.283536
      0.00000      0.00000     19.17424        -0.109727     -0.003179     -0.090843
      2.55619      0.00000     19.17424         0.109727     -0.003179     -0.090843
      1.27810      2.21373     19.17424         0.000000     -0.033827     -0.152103
      3.83429      2.21373     19.17424         0.000000      0.055824     -0.198287
      1.27810      0.00000     20.22189         0.000000     -0.000071     -0.000758
 -----------------------------------------------------------------------------------
    total drift:                                0.000001     -0.000008     -0.006026


--------------------------------------------------------------------------------------------------------



  FREE ENERGIE OF THE ION-ELECTRON SYSTEM (eV)
  ---------------------------------------------------
  free  energy   TOTEN  =       -49.09036758 eV

  energy  without entropy=      -49.05424219  energy(sigma->0) =      -49.07230488
 


--------------------------------------------------------------------------------------------------------


    POTLOK:  cpu time      0.0553: real time      0.0579


--------------------------------------------------------------------------------------------------------


 writing wavefunctions
     LOOP+:  cpu time    180.6681: real time    185.9668
    4ORBIT:  cpu time      0.0000: real time      0.0000

 total amount of memory used by VASP MPI-rank0   149681. kBytes
=======================================================================

   base      :      30000. kBytes
   nonl-proj :      72486. kBytes
   fftplans  :       2678. kBytes
   grid      :      21553. kBytes
   one-center:        404. kBytes
   wavefun   :      22560. kBytes
 
  
  
 General timing and accounting informations for this job:
 ========================================================
  
                  Total CPU time used (sec):      186.092
                            User time (sec):      182.392
                          System time (sec):        3.700
                         Elapsed time (sec):      194.949
  
                   Maximum memory used (kb):      272340.
                   Average memory used (kb):          N/A
  
                          Minor page faults:       244551
                          Major page faults:          133
                 Voluntary context switches:        12710
