 vasp.6.3.2 27Jun22 (build Dec 14 2024 18:09:17) complex                        
  
 executed on             LinuxIFC date 2026.07.05  10:51:58
 running   32 mpi-ranks, with    1 threads/rank
 distrk:  each k-point on   32 cores,    1 groups
 distr:  one band on NCORE=   1 cores,   32 groups


--------------------------------------------------------------------------------------------------------


 INCAR:
   SYSTEM = Cu_H
   ISTART = 0
   ICHARG = 2
   ENCUT = 600
   LH5 = .FALSE.
   NSW = 50
   IBRION = 2
   EDIFFG = -1E-3
   GGA = PE
   ISPIN = 2
   MAGMOM = 12*0 1
   IVDW = 12
   ALGO = Normal
   NELM = 200
   EDIFF = 1E-4
   ISMEAR = -1
   SIGMA = 0.027

 POTCAR:    PAW_PBE Cu 22Jun2005                  
 POTCAR:    PAW_PBE H 15Jun2001                   
 POTCAR:    PAW_PBE Cu 22Jun2005                  
   SHA256 =  0e71e558f37a4e8407882b4609ceaae59938afaad9ced71dfe8490308a0ab630 Cu/POTCAR             
   COPYR  = (c) Copyright 22Jun2005 Georg Kresse                                                    
   COPYR  = This file is part of the software VASP. Any use, copying, and all other rights are regul
   COPYR  = If you do not have a valid VASP license, you may not use, copy or distribute this file. 
   VRHFIN =Cu: d10 p1                                                                               
   LEXCH  = PE                                                                                      
   EATOM  =  1390.9808 eV,  102.2342 Ry                                                             
                                                                                                    
   TITEL  = PAW_PBE Cu 22Jun2005                                                                    
   LULTRA =        F    use ultrasoft PP ?                                                          
   IUNSCR =        1    unscreen: 0-lin 1-nonlin 2-no                                               
   RPACOR =    2.000    partial core radius                                                         
   POMASS =   63.546; ZVAL   =   11.000    mass and valenz                                          
   RCORE  =    2.300    outmost cutoff radius                                                       
   RWIGS  =    2.200; RWIGS  =    1.164    wigner-seitz radius (au A)                               
   ENMAX  =  295.446; ENMIN  =  221.585 eV                                                          
   ICORE  =        3    local potential                                                             
   LCOR   =        T    correct aug charges                                                         
   LPAW   =        T    paw PP                                                                      
   EAUG   =  586.980                                                                                
   DEXC   =    0.000                                                                                
   RMAX   =    2.344    core radius for proj-oper                                                   
   RAUG   =    1.300    factor for augmentation sphere                                              
   RDEP   =    2.302    radius for radial grids                                                     
   RDEPT  =    1.771    core radius for aug-charge                                                  
                                                                                                    
   Atomic configuration                                                                             
    9 entries                                                                                       
     n  l   j            E        occ.                                                              
     1  0  0.50     -8850.2468   2.0000                                                             
     2  0  0.50     -1062.3498   2.0000                                                             
     2  1  1.50      -916.8226   6.0000                                                             
     3  0  0.50      -114.6929   2.0000                                                             
     3  1  1.50       -72.1325   6.0000                                                             
     3  2  2.50        -5.0394  10.0000                                                             
     4  0  0.50        -4.6097   1.0000                                                             
     4  1  0.50        -4.0817   0.0000                                                             
     4  3  2.50        -1.3606   0.0000                                                             
   Description                                                                                      
     l       E           TYP  RCUT    TYP  RCUT                                                     
     2     -5.0393973     23  2.200                                                                 
     2     10.8846608     23  2.200                                                                 
     0     -4.6097109     23  2.200                                                                 
     0      8.2520465     23  2.200                                                                 
     1     -2.7211652     23  2.200                                                                 
     1     21.7055443     23  2.200                                                                 
     3      2.7211652     23  2.300                                                                 
  local pseudopotential read in
  partial core-charges read in
  partial kinetic energy density read in
  atomic valenz-charges read in
  non local Contribution for L=           2  read in
    real space projection operators read in
  non local Contribution for L=           2  read in
    real space projection operators read in
  non local Contribution for L=           0  read in
    real space projection operators read in
  non local Contribution for L=           0  read in
    real space projection operators read in
  non local Contribution for L=           1  read in
    real space projection operators read in
  non local Contribution for L=           1  read in
    real space projection operators read in
    PAW grid and wavefunctions read in
 
   number of l-projection  operators is LMAX  =           6
   number of lm-projection operators is LMMAX =          18
 
 POTCAR:    PAW_PBE H 15Jun2001                   
   SHA256 =  030f79b5d3ab3cf0e668861823c8fb652ff669f3e15e46930bd03bfd63a607b6 H/POTCAR              
   COPYR  = (c) Copyright 15Jun2001 Georg Kresse                                                    
   COPYR  = This file is part of the software VASP. Any use, copying, and all other rights are regul
   COPYR  = If you do not have a valid VASP license, you may not use, copy or distribute this file. 
   VRHFIN =H: ultrasoft test                                                                        
   LEXCH  = PE                                                                                      
   EATOM  =    12.4884 eV,    0.9179 Ry                                                             
                                                                                                    
   TITEL  = PAW_PBE H 15Jun2001                                                                     
   LULTRA =        F    use ultrasoft PP ?                                                          
   IUNSCR =        0    unscreen: 0-lin 1-nonlin 2-no                                               
   RPACOR =    0.000    partial core radius                                                         
   POMASS =    1.000; ZVAL   =    1.000    mass and valenz                                          
   RCORE  =    1.100    outmost cutoff radius                                                       
   RWIGS  =    0.700; RWIGS  =    0.370    wigner-seitz radius (au A)                               
   ENMAX  =  250.000; ENMIN  =  200.000 eV                                                          
   RCLOC  =    0.701    cutoff for local pot                                                        
   LCOR   =        T    correct aug charges                                                         
   LPAW   =        T    paw PP                                                                      
   EAUG   =  400.000                                                                                
   RMAX   =    1.123    core radius for proj-oper                                                   
   RAUG   =    1.200    factor for augmentation sphere                                              
   RDEP   =    1.112    radius for radial grids                                                     
   RDEPT  =    0.926    core radius for aug-charge                                                  
                                                                                                    
   Atomic configuration                                                                             
    2 entries                                                                                       
     n  l   j            E        occ.                                                              
     1  0  0.50        -6.4927   1.0000                                                             
     2  1  0.50        -3.4015   0.0000                                                             
   Description                                                                                      
     l       E           TYP  RCUT    TYP  RCUT                                                     
     0     -6.4927494     23  1.100                                                                 
     0      6.8029130     23  1.100                                                                 
     1     -4.0817478     23  1.100                                                                 
  local pseudopotential read in
  atomic valenz-charges read in
  non local Contribution for L=           0  read in
    real space projection operators read in
  non local Contribution for L=           0  read in
    real space projection operators read in
  non local Contribution for L=           1  read in
    real space projection operators read in
    PAW grid and wavefunctions read in
 
   number of l-projection  operators is LMAX  =           3
   number of lm-projection operators is LMMAX =           5
 
  PAW_PBE Cu 22Jun2005                  :
 energy of atom  1       EATOM=-1390.9808
 kinetic energy error for atom=    0.0033 (will be added to EATOM!!)
  PAW_PBE H 15Jun2001                   :
 energy of atom  2       EATOM=  -12.4884
 kinetic energy error for atom=    0.0004 (will be added to EATOM!!)
 
 
 POSCAR: Cu H
  positions in cartesian coordinates
  No initial velocities read in
 exchange correlation table for  LEXCH =        8
   RHO(1)=    0.500       N(1)  =     2000
   RHO(2)=  100.500       N(2)  =     4000
 
 POSCAR: Cu H
  positions in cartesian coordinates
  No initial velocities read in
 
 POSCAR: Cu H
  positions in cartesian coordinates
  No initial velocities read in
 


--------------------------------------------------------------------------------------------------------


 ion  position               nearest neighbor table
   1  0.167  0.167  0.439-   5 2.56   6 2.56   3 2.56   2 2.56   4 2.56   8 2.56   4 2.56   2 2.56
                             3 2.56
   2  0.667  0.167  0.439-   6 2.56   4 2.56   3 2.56   1 2.56   5 2.56   7 2.56   1 2.56   3 2.56
                             4 2.56
   3  0.167  0.667  0.439-   6 2.56   7 2.56   8 2.56   1 2.56   2 2.56   4 2.56   4 2.56   2 2.56
                             1 2.56
   4  0.667  0.667  0.439-   5 2.56   8 2.56   2 2.56   3 2.56   7 2.56   1 2.56   1 2.56   3 2.56
                             2 2.56
   5  0.833  0.333  0.500-   4 2.56   1 2.56   7 2.56   6 2.56   9 2.56  11 2.56   2 2.56   8 2.56
                            12 2.56   8 2.56   6 2.56   7 2.56
   6  0.333  0.333  0.500-   3 2.56   2 2.56   1 2.56   7 2.56   8 2.56   5 2.56  10 2.56  11 2.56
                            12 2.56   5 2.56   7 2.56   8 2.56
   7  0.833  0.833  0.500-   3 2.56   5 2.56   6 2.56   8 2.56  11 2.56   4 2.56  10 2.56   9 2.56
                             2 2.56   8 2.56   6 2.56   5 2.56
   8  0.333  0.833  0.500-   4 2.56   3 2.56   6 2.56   7 2.56  12 2.56   9 2.56   5 2.56  10 2.56
                             1 2.56   5 2.56   7 2.56   6 2.56
   9  0.000  0.000  0.561-  13 0.96  10 2.56  11 2.56   5 2.56   8 2.56  12 2.56   7 2.56  12 2.56
                            10 2.56  11 2.56
  10  0.500  0.000  0.561-   9 2.56  11 2.56  12 2.56   6 2.56   8 2.56   7 2.56   9 2.56  12 2.56
                            11 2.56
  11  0.000  0.500  0.561-  12 2.56  10 2.56   9 2.56   7 2.56   6 2.56   5 2.56  12 2.56   9 2.56
                            10 2.56
  12  0.500  0.500  0.561-  11 2.56  10 2.56   8 2.56   6 2.56   9 2.56   5 2.56   9 2.56  11 2.56
                            10 2.56
  13  0.000  0.000  0.589-   9 0.96
 
  LATTYP: Found a hexagonal cell.
 ALAT       =     5.1123820280
 C/A-ratio  =     6.6846026488
  
  Lattice vectors:
  
 A1 = (  -2.5561910140,  -4.4274527101,   0.0000000000)
 A2 = (   5.1123820280,   0.0000000000,   0.0000000000)
 A3 = (   0.0000000000,   0.0000000000,  34.1742424462)


Analysis of symmetry for initial positions (statically):
=====================================================================
 Subroutine PRICEL returns:
 Original cell was already a primitive cell.
 

 Routine SETGRP: Setting up the symmetry group for a 
 hexagonal supercell.


 Subroutine GETGRP returns: Found  6 space group operations
 (whereof  6 operations were pure point group operations)
 out of a pool of 24 trial point group operations.


The static configuration has the point symmetry C_3v.


Analysis of symmetry for dynamics (positions and initial velocities):
=====================================================================
 Subroutine PRICEL returns:
 Original cell was already a primitive cell.
 

 Routine SETGRP: Setting up the symmetry group for a 
 hexagonal supercell.


 Subroutine GETGRP returns: Found  6 space group operations
 (whereof  6 operations were pure point group operations)
 out of a pool of 24 trial point group operations.


The dynamic configuration has the point symmetry C_3v.


Analysis of constrained symmetry for selective dynamics:
=====================================================================
 Subroutine PRICEL returns:
 Original cell was already a primitive cell.
 

 Routine SETGRP: Setting up the symmetry group for a 
 hexagonal supercell.


 Subroutine GETGRP returns: Found  6 space group operations
 (whereof  6 operations were pure point group operations)
 out of a pool of 24 trial point group operations.


The constrained configuration has the point symmetry C_3v.


Analysis of structural, dynamic, and magnetic symmetry:
=====================================================================
 Subroutine PRICEL returns:
 Original cell was already a primitive cell.
 

 Routine SETGRP: Setting up the symmetry group for a 
 hexagonal supercell.


 Subroutine GETGRP returns: Found  6 space group operations
 (whereof  6 operations were pure point group operations)
 out of a pool of 24 trial point group operations.


The overall configuration has the point symmetry C_3v.


 Subroutine INISYM returns: Found  6 space group operations
 (whereof  6 operations are pure point group operations),
 and found     1 'primitive' translations


----------------------------------------------------------------------------------------

                                     Primitive cell                                     

  volume of cell :     773.5282

  direct lattice vectors                    reciprocal lattice vectors
     5.112382028  0.000000000  0.000000000     0.195603536 -0.112931754  0.000000000
     2.556191014  4.427452710  0.000000000     0.000000000  0.225863508  0.000000000
     0.000000000  0.000000000 34.174242446     0.000000000  0.000000000  0.029261804

  length of vectors
     5.112382028  5.112382028 34.174242446     0.225863508  0.225863508  0.029261804

  position of ions in fractional coordinates (direct lattice)
     0.166666667  0.166666667  0.438927067
     0.666666667  0.166666667  0.438927067
     0.166666667  0.666666667  0.438927067
     0.666666667  0.666666667  0.438927067
     0.833333333  0.333333333  0.500000000
     0.333333333  0.333333333  0.500000000
     0.833333333  0.833333333  0.500000000
     0.333333333  0.833333333  0.500000000
     0.000000000  0.000000000  0.561072933
     0.500000000  0.000000000  0.561072933
     0.000000000  0.500000000  0.561072933
     0.500000000  0.500000000  0.561072933
     0.000000000  0.000000000  0.589112986

  ion indices of the primitive-cell ions
   primitive index   ion index
                 1           1
                 2           2
                 3           3
                 4           4
                 5           5
                 6           6
                 7           7
                 8           8
                 9           9
                10          10
                11          11
                12          12
                13          13

----------------------------------------------------------------------------------------

 
 
 KPOINTS: K-Points                                

Automatic generation of k-mesh.
 Grid dimensions read from file:
 generate k-points for:    5    5    1

 Generating k-lattice:

  Cartesian coordinates                     Fractional coordinates (reciprocal lattice)
     0.039120707 -0.022586351  0.000000000     0.200000000  0.000000000  0.000000000
     0.000000000  0.045172702  0.000000000     0.000000000  0.200000000  0.000000000
     0.000000000  0.000000000  0.029261804     0.000000000  0.000000000  1.000000000

  Length of vectors
     0.045172702  0.045172702  0.029261804

  Shift w.r.t. Gamma in fractional coordinates (k-lattice)
     0.000000000  0.000000000  0.000000000

 
 Subroutine IBZKPT returns following result:
 ===========================================
 
 Found      5 irreducible k-points:
 
 Following reciprocal coordinates:
            Coordinates               Weight
  0.000000  0.000000  0.000000      1.000000
  0.200000  0.000000  0.000000      6.000000
  0.400000  0.000000  0.000000      6.000000
  0.400000  0.200000  0.000000      6.000000
 -0.400000  0.200000  0.000000      6.000000
 
 Following cartesian coordinates:
            Coordinates               Weight
  0.000000  0.000000  0.000000      1.000000
  0.039121 -0.022586  0.000000      6.000000
  0.078241 -0.045173  0.000000      6.000000
  0.078241  0.000000  0.000000      6.000000
 -0.078241  0.090345  0.000000      6.000000
 


--------------------------------------------------------------------------------------------------------




 Dimension of arrays:
   k-points           NKPTS =      5   k-points in BZ     NKDIM =      5   number of bands    NBANDS=     96
   number of dos      NEDOS =    301   number of ions     NIONS =     13
   non local maximal  LDIM  =      6   non local SUM 2l+1 LMDIM =     18
   total plane-waves  NPLWV = 215040
   max r-space proj   IRMAX =      1   max aug-charges    IRDMAX=   8251
   dimension x,y,z NGX =    32 NGY =   32 NGZ =  210
   dimension x,y,z NGXF=    64 NGYF=   64 NGZF=  420
   support grid    NGXF=    64 NGYF=   64 NGZF=  420
   ions per type =              12   1
   NGX,Y,Z   is equivalent  to a cutoff of  10.41, 10.41, 10.22 a.u.
   NGXF,Y,Z  is equivalent  to a cutoff of  20.81, 20.81, 20.43 a.u.

 SYSTEM =  Cu_H                                    
 POSCAR =  Cu H                                    

 Startparameter for this run:
   NWRITE =      2    write-flag & timer
   PREC   = normal    normal or accurate (medium, high low for compatibility)
   ISTART =      0    job   : 0-new  1-cont  2-samecut
   ICHARG =      2    charge: 1-file 2-atom 10-const
   ISPIN  =      2    spin polarized calculation?
   LNONCOLLINEAR =      F non collinear calculations
   LSORBIT =      F    spin-orbit coupling
   INIWAV =      1    electr: 0-lowe 1-rand  2-diag
   LASPH  =      F    aspherical Exc in radial PAW
 Electronic Relaxation 1
   ENCUT  =  600.0 eV  44.10 Ry    6.64 a.u.  10.21 10.21 68.25*2*pi/ulx,y,z
   ENINI  =  600.0     initial cutoff
   ENAUG  =  587.0 eV  augmentation charge cutoff
   NELM   =    200;   NELMIN=  2; NELMDL= -5     # of ELM steps 
   EDIFF  = 0.1E-03   stopping-criterion for ELM
   LREAL  =      F    real-space projection
   NLSPLINE    = F    spline interpolate recip. space projectors
   LCOMPAT=      F    compatible to vasp.4.4
   GGA_COMPAT  = T    GGA compatible to vasp.4.4-vasp.4.6
   LMAXPAW     = -100 max onsite density
   LMAXMIX     =    2 max onsite mixed and CHGCAR
   VOSKOWN=      0    Vosko Wilk Nusair interpolation
   ROPT   =    0.00000   0.00000
 Ionic relaxation
   EDIFFG = -.1E-02   stopping-criterion for IOM
   NSW    =     50    number of steps for IOM
   NBLOCK =      1;   KBLOCK =     50    inner block; outer block 
   IBRION =      2    ionic relax: 0-MD 1-quasi-New 2-CG
   NFREE  =      1    steps in history (QN), initial steepest desc. (CG)
   ISIF   =      2    stress and relaxation
   IWAVPR =     11    prediction:  0-non 1-charg 2-wave 3-comb
   ISYM   =      2    0-nonsym 1-usesym 2-fastsym
   LCORR  =      T    Harris-Foulkes like correction to forces

   POTIM  = 0.5000    time-step for ionic-motion
   TEIN   =    0.0    initial temperature
   TEBEG  =    0.0;   TEEND  =   0.0 temperature during run
   SMASS  =  -3.00    Nose mass-parameter (am)
   estimated Nose-frequenzy (Omega)   =  0.10E-29 period in steps = 0.13E+47 mass=  -0.597E-27a.u.
   SCALEE = 1.0000    scale energy and forces
   NPACO  =    256;   APACO  = 10.0  distance and # of slots for P.C.
   PSTRESS=    0.0 pullay stress

  Mass of Ions in am
   POMASS =  63.55  1.00
  Ionic Valenz
   ZVAL   =  11.00  1.00
  Atomic Wigner-Seitz radii
   RWIGS  =  -1.00 -1.00
  virtual crystal weights 
   VCA    =   1.00  1.00
   NELECT =     133.0000    total number of electrons
   NUPDOWN=      -1.0000    fix difference up-down

 DOS related values:
   EMIN   =  10.00;   EMAX   =-10.00  energy-range for DOS
   EFERMI =   0.00
   ISMEAR =    -1;   SIGMA  =   0.03  broadening in eV -4-tet -1-fermi 0-gaus

 Electronic relaxation 2 (details)
   IALGO  =     38    algorithm
   LDIAG  =      T    sub-space diagonalisation (order eigenvalues)
   LSUBROT=      F    optimize rotation matrix (better conditioning)
   TURBO    =      0    0=normal 1=particle mesh
   IRESTART =      0    0=no restart 2=restart with 2 vectors
   NREBOOT  =      0    no. of reboots
   NMIN     =      0    reboot dimension
   EREF     =   0.00    reference energy to select bands
   IMIX   =      4    mixing-type and parameters
     AMIX     =   0.40;   BMIX     =  1.00
     AMIX_MAG =   1.60;   BMIX_MAG =  1.00
     AMIN     =   0.10
     WC   =   100.;   INIMIX=   1;  MIXPRE=   1;  MAXMIX= -45

 Intra band minimization:
   WEIMIN = 0.0010     energy-eigenvalue tresh-hold
   EBREAK =  0.26E-06  absolut break condition
   DEPER  =   0.30     relativ break condition  

   TIME   =   0.40     timestep for ELM

  volume/ion in A,a.u.               =      59.50       401.54
  Fermi-wavevector in a.u.,A,eV,Ry     =   0.910332  1.720279 11.275217  0.828705
  Thomas-Fermi vector in A             =   2.034482
 
 Write flags
   LWAVE        =      T    write WAVECAR
   LDOWNSAMPLE  =      F    k-point downsampling of WAVECAR
   LCHARG       =      T    write CHGCAR
   LVTOT        =      F    write LOCPOT, total local potential
   LVHAR        =      F    write LOCPOT, Hartree potential only
   LELF         =      F    write electronic localiz. function (ELF)
   LORBIT       =      0    0 simple, 1 ext, 2 COOP (PROOUT), +10 PAW based schemes


 Dipole corrections
   LMONO  =      F    monopole corrections only (constant potential shift)
   LDIPOL =      F    correct potential (dipole corrections)
   IDIPOL =      0    1-x, 2-y, 3-z, 4-all directions 
   EPSILON=  1.0000000 bulk dielectric constant

 Exchange correlation treatment:
   GGA     =    PE    GGA type
   LEXCH   =     8    internal setting for exchange type
   LIBXC   =     F    Libxc                    
   VOSKOWN =     0    Vosko Wilk Nusair interpolation
   LHFCALC =     F    Hartree Fock is set to
   LHFONE  =     F    Hartree Fock one center treatment
   AEXX    =    0.0000 exact exchange contribution

 Linear response parameters
   LEPSILON=     F    determine dielectric tensor
   LRPA    =     F    only Hartree local field effects (RPA)
   LNABLA  =     F    use nabla operator in PAW spheres
   LVEL    =     F    velocity operator in full k-point grid
   CSHIFT  =0.1000    complex shift for real part using Kramers Kronig
   OMEGAMAX=  -1.0    maximum frequency
   DEG_THRESHOLD= 0.2000000E-02 threshold for treating states as degnerate
   RTIME   =   -0.100 relaxation time in fs
  (WPLASMAI=    0.000 imaginary part of plasma frequency in eV, 0.658/RTIME)
   DFIELD  = 0.0000000 0.0000000 0.0000000 field for delta impulse in time
 
  Optional k-point grid parameters
   LKPOINTS_OPT  =     F    use optional k-point grid
   KPOINTS_OPT_MODE=     1    mode for optional k-point grid
 
 Orbital magnetization related:
   ORBITALMAG=     F  switch on orbital magnetization
   LCHIMAG   =     F  perturbation theory with respect to B field
   DQ        =  0.001000  dq finite difference perturbation B field
   LLRAUG    =     F  two centre corrections for induced B field



--------------------------------------------------------------------------------------------------------


 conjugate gradient relaxation of ions
   using selective dynamics as specified on POSCAR
   WARNING: If single coordinates had been selected the selection of coordinates
            is made according to the corresponding   d i r e c t   coordinates!
            Don't support selection of single cartesian coordinates -- sorry ...
  !
 charge density and potential will be updated during run
 spin polarized calculation
 Variant of blocked Davidson
 Davidson routine will perform the subspace rotation
 perform sub-space diagonalisation
    after iterative eigenvector-optimisation
 modified Broyden-mixing scheme, WC =      100.0
 initial mixing is a Kerker type mixing with AMIX =  0.4000 and BMIX =      1.0000
 Hartree-type preconditioning will be used
 using additional bands           29
 reciprocal scheme for non local part
 use partial core corrections
 calculate Harris-corrections to forces 
   (improved forces if not selfconsistent)
 use gradient corrections 
 use of overlap-Matrix (Vanderbilt PP)
 Fermi-smearing in eV        SIGMA  =   0.03


--------------------------------------------------------------------------------------------------------


  energy-cutoff  :      600.00
  volume of cell :      773.53
      direct lattice vectors                 reciprocal lattice vectors
     5.112382028  0.000000000  0.000000000     0.195603536 -0.112931754  0.000000000
     2.556191014  4.427452710  0.000000000     0.000000000  0.225863508  0.000000000
     0.000000000  0.000000000 34.174242446     0.000000000  0.000000000  0.029261804

  length of vectors
     5.112382028  5.112382028 34.174242446     0.225863508  0.225863508  0.029261804


 
 k-points in units of 2pi/SCALE and weight: K-Points                                
   0.00000000  0.00000000  0.00000000       0.040
   0.03912071 -0.02258635  0.00000000       0.240
   0.07824141 -0.04517270  0.00000000       0.240
   0.07824141  0.00000000  0.00000000       0.240
  -0.07824141  0.09034540  0.00000000       0.240
 
 k-points in reciprocal lattice and weights: K-Points                                
   0.00000000  0.00000000  0.00000000       0.040
   0.20000000  0.00000000  0.00000000       0.240
   0.40000000  0.00000000  0.00000000       0.240
   0.40000000  0.20000000  0.00000000       0.240
  -0.40000000  0.20000000  0.00000000       0.240
 
 position of ions in fractional coordinates (direct lattice) 
   0.16666667  0.16666667  0.43892707
   0.66666667  0.16666667  0.43892707
   0.16666667  0.66666667  0.43892707
   0.66666667  0.66666667  0.43892707
   0.83333333  0.33333333  0.50000000
   0.33333333  0.33333333  0.50000000
   0.83333333  0.83333333  0.50000000
   0.33333333  0.83333333  0.50000000
   0.00000000  0.00000000  0.56107293
   0.50000000  0.00000000  0.56107293
   0.00000000  0.50000000  0.56107293
   0.50000000  0.50000000  0.56107293
   0.00000000  0.00000000  0.58911299
 
 position of ions in cartesian coordinates  (Angst):
   1.27809551  0.73790879 15.00000000
   3.83428652  0.73790879 15.00000000
   2.55619101  2.95163514 15.00000000
   5.11238203  2.95163514 15.00000000
   5.11238203  1.47581757 17.08712122
   2.55619101  1.47581757 17.08712122
   6.39047753  3.68954393 17.08712122
   3.83428652  3.68954393 17.08712122
   0.00000000  0.00000000 19.17424245
   2.55619101  0.00000000 19.17424245
   1.27809551  2.21372636 19.17424245
   3.83428652  2.21372636 19.17424245
   0.00000000  0.00000000 20.13249000
 


--------------------------------------------------------------------------------------------------------


 k-point   1 :   0.0000 0.0000 0.0000  plane waves:   25823
 k-point   2 :   0.2000 0.0000 0.0000  plane waves:   25780
 k-point   3 :   0.4000 0.0000 0.0000  plane waves:   25868
 k-point   4 :   0.4000 0.2000 0.0000  plane waves:   25778
 k-point   5 :  -0.4000 0.2000 0.0000  plane waves:   25818

 maximum and minimum number of plane-waves per node :     25868    25778

 maximum number of plane-waves:     25868
 maximum index in each direction: 
   IXMAX=   10   IYMAX=   10   IZMAX=   68
   IXMIN=  -10   IYMIN=  -10   IZMIN=  -68


 serial   3D FFT for wavefunctions
 parallel 3D FFT for charge:
    minimum data exchange during FFTs selected (reduces bandwidth)


 total amount of memory used by VASP MPI-rank0   109831. kBytes
=======================================================================

   base      :      30000. kBytes
   nonl-proj :      42663. kBytes
   fftplans  :       2678. kBytes
   grid      :      21553. kBytes
   one-center:        404. kBytes
   wavefun   :      12533. kBytes
 
     INWAV:  cpu time      0.0000: real time      0.0000
 Broyden mixing: mesh for mixing (old mesh)
   NGX = 21   NGY = 21   NGZ =137
  (NGX  = 64   NGY  = 64   NGZ  =420)
  gives a total of  60417 points

 initial charge density was supplied:
 charge density of overlapping atoms calculated
 number of electron     133.0000000 magnetization       1.0000000
 keeping initial charge density in first step


--------------------------------------------------------------------------------------------------------


 Maximum index for augmentation-charges          425 (set IRDMAX)


--------------------------------------------------------------------------------------------------------


 First call to EWALD:  gamma=   0.193
 Maximum number of real-space cells 5x 5x 1
 Maximum number of reciprocal cells 2x 2x 9

    FEWALD:  cpu time      0.0005: real time      0.0005


--------------------------------------- Iteration      1(   1)  ---------------------------------------


    POTLOK:  cpu time      0.0647: real time      0.0751
    SETDIJ:  cpu time      0.0060: real time      0.0061
     EDDAV:  cpu time      2.3900: real time      2.4138
       DOS:  cpu time      0.0004: real time      0.0004
    --------------------------------------------
      LOOP:  cpu time      2.4611: real time      2.4954

 eigenvalue-minimisations  :  1920
 total energy-change (2. order) : 0.1030071E+04  (-0.5676395E+04)
 number of electron     133.0000000 magnetization       1.0000000
 augmentation part      133.0000000 magnetization       1.0000000

 Free energy of the ion-electron system (eV)
  ---------------------------------------------------
  alpha Z        PSCENC =       137.59429322
  Ewald energy   TEWEN  =    124003.21518635
  -Hartree energ DENC   =   -139559.84939645
  -exchange      EXHF   =         0.00000000
  -V(xc)+E(xc)   XCENC  =       549.26204642
  PAW double counting   =     14740.27424841   -16010.38430694
  entropy T*S    EENTRO =        -0.03848223
  eigenvalues    EBANDS =       465.78037393
  atomic energy  EATOM  =     16704.21750749
  Solvation  Ecorr_sol  =         0.00000000
  ---------------------------------------------------
  free energy    TOTEN  =      1030.07147020 eV

  energy without entropy =     1030.10995243  energy(sigma->0) =     1030.09071132


--------------------------------------------------------------------------------------------------------




--------------------------------------- Iteration      1(   2)  ---------------------------------------


     EDDAV:  cpu time      2.4322: real time      2.4585
       DOS:  cpu time      0.0003: real time      0.0003
    --------------------------------------------
      LOOP:  cpu time      2.4325: real time      2.4588

 eigenvalue-minimisations  :  1920
 total energy-change (2. order) :-0.1030592E+04  (-0.9618083E+03)
 number of electron     133.0000000 magnetization       1.0000000
 augmentation part      133.0000000 magnetization       1.0000000

 Free energy of the ion-electron system (eV)
  ---------------------------------------------------
  alpha Z        PSCENC =       137.59429322
  Ewald energy   TEWEN  =    124003.21518635
  -Hartree energ DENC   =   -139559.84939645
  -exchange      EXHF   =         0.00000000
  -V(xc)+E(xc)   XCENC  =       549.26204642
  PAW double counting   =     14740.27424841   -16010.38430694
  entropy T*S    EENTRO =        -0.02436109
  eigenvalues    EBANDS =      -564.82566487
  atomic energy  EATOM  =     16704.21750749
  Solvation  Ecorr_sol  =         0.00000000
  ---------------------------------------------------
  free energy    TOTEN  =        -0.52044746 eV

  energy without entropy =       -0.49608637  energy(sigma->0) =       -0.50826692


--------------------------------------------------------------------------------------------------------




--------------------------------------- Iteration      1(   3)  ---------------------------------------


     EDDAV:  cpu time      3.2947: real time      3.3308
       DOS:  cpu time      0.0003: real time      0.0003
    --------------------------------------------
      LOOP:  cpu time      3.2950: real time      3.3312

 eigenvalue-minimisations  :  2688
 total energy-change (2. order) :-0.4594076E+02  (-0.4497811E+02)
 number of electron     133.0000000 magnetization       1.0000000
 augmentation part      133.0000000 magnetization       1.0000000

 Free energy of the ion-electron system (eV)
  ---------------------------------------------------
  alpha Z        PSCENC =       137.59429322
  Ewald energy   TEWEN  =    124003.21518635
  -Hartree energ DENC   =   -139559.84939645
  -exchange      EXHF   =         0.00000000
  -V(xc)+E(xc)   XCENC  =       549.26204642
  PAW double counting   =     14740.27424841   -16010.38430694
  entropy T*S    EENTRO =        -0.02276998
  eigenvalues    EBANDS =      -610.76801136
  atomic energy  EATOM  =     16704.21750749
  Solvation  Ecorr_sol  =         0.00000000
  ---------------------------------------------------
  free energy    TOTEN  =       -46.46120284 eV

  energy without entropy =      -46.43843286  energy(sigma->0) =      -46.44981785


--------------------------------------------------------------------------------------------------------




--------------------------------------- Iteration      1(   4)  ---------------------------------------


     EDDAV:  cpu time      3.0675: real time      3.1011
       DOS:  cpu time      0.0003: real time      0.0003
    --------------------------------------------
      LOOP:  cpu time      3.0679: real time      3.1014

 eigenvalue-minimisations  :  2464
 total energy-change (2. order) :-0.9921133E+00  (-0.9917591E+00)
 number of electron     133.0000000 magnetization       1.0000000
 augmentation part      133.0000000 magnetization       1.0000000

 Free energy of the ion-electron system (eV)
  ---------------------------------------------------
  alpha Z        PSCENC =       137.59429322
  Ewald energy   TEWEN  =    124003.21518635
  -Hartree energ DENC   =   -139559.84939645
  -exchange      EXHF   =         0.00000000
  -V(xc)+E(xc)   XCENC  =       549.26204642
  PAW double counting   =     14740.27424841   -16010.38430694
  entropy T*S    EENTRO =        -0.02280838
  eigenvalues    EBANDS =      -611.76008628
  atomic energy  EATOM  =     16704.21750749
  Solvation  Ecorr_sol  =         0.00000000
  ---------------------------------------------------
  free energy    TOTEN  =       -47.45331616 eV

  energy without entropy =      -47.43050777  energy(sigma->0) =      -47.44191197


--------------------------------------------------------------------------------------------------------




--------------------------------------- Iteration      1(   5)  ---------------------------------------


     EDDAV:  cpu time      3.3424: real time      3.3735
       DOS:  cpu time      0.0003: real time      0.0003
    CHARGE:  cpu time      0.1153: real time      0.1161
    MIXING:  cpu time      0.0011: real time      0.0011
    --------------------------------------------
      LOOP:  cpu time      3.4591: real time      3.4910

 eigenvalue-minimisations  :  2880
 total energy-change (2. order) :-0.3242338E-01  (-0.3242098E-01)
 number of electron     133.0000041 magnetization       0.9635312
 augmentation part       78.0752102 magnetization       0.6799326

 Broyden mixing:
  rms(total) = 0.26320E+01    rms(broyden)= 0.26319E+01
  rms(prec ) = 0.26975E+01
  weight for this iteration     100.00

 Free energy of the ion-electron system (eV)
  ---------------------------------------------------
  alpha Z        PSCENC =       137.59429322
  Ewald energy   TEWEN  =    124003.21518635
  -Hartree energ DENC   =   -139559.84939645
  -exchange      EXHF   =         0.00000000
  -V(xc)+E(xc)   XCENC  =       549.26204642
  PAW double counting   =     14740.27424841   -16010.38430694
  entropy T*S    EENTRO =        -0.02280786
  eigenvalues    EBANDS =      -611.79251019
  atomic energy  EATOM  =     16704.21750749
  Solvation  Ecorr_sol  =         0.00000000
  ---------------------------------------------------
  free energy    TOTEN  =       -47.48573954 eV

  energy without entropy =      -47.46293168  energy(sigma->0) =      -47.47433561


--------------------------------------------------------------------------------------------------------




--------------------------------------- Iteration      1(   6)  ---------------------------------------


    POTLOK:  cpu time      0.0488: real time      0.0497
    SETDIJ:  cpu time      0.0035: real time      0.0035
     EDDAV:  cpu time      2.8588: real time      2.8871
       DOS:  cpu time      0.0003: real time      0.0003
    CHARGE:  cpu time      0.1149: real time      0.1155
    MIXING:  cpu time      0.0011: real time      0.0011
    --------------------------------------------
      LOOP:  cpu time      3.0275: real time      3.0572

 eigenvalue-minimisations  :  2432
 total energy-change (2. order) : 0.3572489E+01  (-0.1126931E+02)
 number of electron     133.0000043 magnetization       0.9460453
 augmentation part       88.1700042 magnetization       0.5270963

 Broyden mixing:
  rms(total) = 0.15452E+01    rms(broyden)= 0.15452E+01
  rms(prec ) = 0.15838E+01
  weight for this iteration     100.00

 eigenvalues of (default mixing * dielectric matrix)
  average eigenvalue GAMMA=   0.6386
  0.6386

 Free energy of the ion-electron system (eV)
  ---------------------------------------------------
  alpha Z        PSCENC =       137.59429322
  Ewald energy   TEWEN  =    124003.21518635
  -Hartree energ DENC   =   -139208.80928364
  -exchange      EXHF   =         0.00000000
  -V(xc)+E(xc)   XCENC  =       533.46439003
  PAW double counting   =     14935.99257667   -16142.16532394
  entropy T*S    EENTRO =        -0.02171883
  eigenvalues    EBANDS =     -1007.40087751
  atomic energy  EATOM  =     16704.21750749
  Solvation  Ecorr_sol  =         0.00000000
  ---------------------------------------------------
  free energy    TOTEN  =       -43.91325015 eV

  energy without entropy =      -43.89153132  energy(sigma->0) =      -43.90239073


--------------------------------------------------------------------------------------------------------




--------------------------------------- Iteration      1(   7)  ---------------------------------------


    POTLOK:  cpu time      0.0467: real time      0.0473
    SETDIJ:  cpu time      0.0038: real time      0.0039
     EDDAV:  cpu time      2.8688: real time      2.8989
       DOS:  cpu time      0.0003: real time      0.0003
    CHARGE:  cpu time      0.1115: real time      0.1123
    MIXING:  cpu time      0.0011: real time      0.0011
    --------------------------------------------
      LOOP:  cpu time      3.0323: real time      3.0638

 eigenvalue-minimisations  :  2400
 total energy-change (2. order) : 0.5430419E+01  (-0.2319252E+01)
 number of electron     133.0000041 magnetization       0.9152669
 augmentation part       84.4400459 magnetization       0.6280765

 Broyden mixing:
  rms(total) = 0.28029E+00    rms(broyden)= 0.28027E+00
  rms(prec ) = 0.29103E+00
  weight for this iteration     100.00

 eigenvalues of (default mixing * dielectric matrix)
  average eigenvalue GAMMA=   0.8288
  1.0360  0.6216

 Free energy of the ion-electron system (eV)
  ---------------------------------------------------
  alpha Z        PSCENC =       137.59429322
  Ewald energy   TEWEN  =    124003.21518635
  -Hartree energ DENC   =   -139360.98102287
  -exchange      EXHF   =         0.00000000
  -V(xc)+E(xc)   XCENC  =       539.05844001
  PAW double counting   =     15247.98697962   -16511.16901577
  entropy T*S    EENTRO =        -0.02903868
  eigenvalues    EBANDS =      -798.37616093
  atomic energy  EATOM  =     16704.21750749
  Solvation  Ecorr_sol  =         0.00000000
  ---------------------------------------------------
  free energy    TOTEN  =       -38.48283155 eV

  energy without entropy =      -38.45379287  energy(sigma->0) =      -38.46831221


--------------------------------------------------------------------------------------------------------




--------------------------------------- Iteration      1(   8)  ---------------------------------------


    POTLOK:  cpu time      0.0551: real time      0.0557
    SETDIJ:  cpu time      0.0031: real time      0.0032
     EDDAV:  cpu time      2.7630: real time      2.7902
       DOS:  cpu time      0.0030: real time      0.0030
    CHARGE:  cpu time      0.1110: real time      0.1116
    MIXING:  cpu time      0.0011: real time      0.0011
    --------------------------------------------
      LOOP:  cpu time      2.9363: real time      2.9648

 eigenvalue-minimisations  :  2400
 total energy-change (2. order) :-0.1148427E-01  (-0.3366107E+00)
 number of electron     133.0000042 magnetization       0.8812567
 augmentation part       83.9310759 magnetization       0.5430503

 Broyden mixing:
  rms(total) = 0.33277E+00    rms(broyden)= 0.33276E+00
  rms(prec ) = 0.35108E+00
  weight for this iteration     100.00

 eigenvalues of (default mixing * dielectric matrix)
  average eigenvalue GAMMA=   0.9094
  1.7149  0.5860  0.4272

 Free energy of the ion-electron system (eV)
  ---------------------------------------------------
  alpha Z        PSCENC =       137.59429322
  Ewald energy   TEWEN  =    124003.21518635
  -Hartree energ DENC   =   -139377.77856567
  -exchange      EXHF   =         0.00000000
  -V(xc)+E(xc)   XCENC  =       539.08991493
  PAW double counting   =     15475.11370665   -16755.50700436
  entropy T*S    EENTRO =        -0.03778228
  eigenvalues    EBANDS =      -764.40157216
  atomic energy  EATOM  =     16704.21750749
  Solvation  Ecorr_sol  =         0.00000000
  ---------------------------------------------------
  free energy    TOTEN  =       -38.49431582 eV

  energy without entropy =      -38.45653354  energy(sigma->0) =      -38.47542468


--------------------------------------------------------------------------------------------------------




--------------------------------------- Iteration      1(   9)  ---------------------------------------


    POTLOK:  cpu time      0.0469: real time      0.0474
    SETDIJ:  cpu time      0.0041: real time      0.0041
     EDDAV:  cpu time      3.3376: real time      3.3690
       DOS:  cpu time      0.0003: real time      0.0003
    CHARGE:  cpu time      0.1297: real time      0.1303
    MIXING:  cpu time      0.0013: real time      0.0013
    --------------------------------------------
      LOOP:  cpu time      3.5200: real time      3.5525

 eigenvalue-minimisations  :  2944
 total energy-change (2. order) : 0.8981291E-01  (-0.1302382E+00)
 number of electron     133.0000041 magnetization       0.8648409
 augmentation part       83.8329271 magnetization       0.5471455

 Broyden mixing:
  rms(total) = 0.20313E+00    rms(broyden)= 0.20313E+00
  rms(prec ) = 0.21540E+00
  weight for this iteration     100.00

 eigenvalues of (default mixing * dielectric matrix)
  average eigenvalue GAMMA=   0.8478
  1.7849  0.6052  0.6052  0.3959

 Free energy of the ion-electron system (eV)
  ---------------------------------------------------
  alpha Z        PSCENC =       137.59429322
  Ewald energy   TEWEN  =    124003.21518635
  -Hartree energ DENC   =   -139384.70864049
  -exchange      EXHF   =         0.00000000
  -V(xc)+E(xc)   XCENC  =       538.55376016
  PAW double counting   =     15689.37061245   -16982.60988979
  entropy T*S    EENTRO =        -0.03100440
  eigenvalues    EBANDS =      -744.00632791
  atomic energy  EATOM  =     16704.21750749
  Solvation  Ecorr_sol  =         0.00000000
  ---------------------------------------------------
  free energy    TOTEN  =       -38.40450290 eV

  energy without entropy =      -38.37349851  energy(sigma->0) =      -38.38900071


--------------------------------------------------------------------------------------------------------




--------------------------------------- Iteration      1(  10)  ---------------------------------------


    POTLOK:  cpu time      0.0481: real time      0.0485
    SETDIJ:  cpu time      0.0042: real time      0.0042
     EDDAV:  cpu time      3.1594: real time      3.1899
       DOS:  cpu time      0.0011: real time      0.0011
    CHARGE:  cpu time      0.1375: real time      0.1381
    MIXING:  cpu time      0.0039: real time      0.0039
    --------------------------------------------
      LOOP:  cpu time      3.3542: real time      3.3858

 eigenvalue-minimisations  :  2784
 total energy-change (2. order) :-0.6786443E-02  (-0.3581774E-01)
 number of electron     133.0000042 magnetization       0.8442658
 augmentation part       84.0095227 magnetization       0.5560467

 Broyden mixing:
  rms(total) = 0.11918E+00    rms(broyden)= 0.11918E+00
  rms(prec ) = 0.12474E+00
  weight for this iteration     100.00

 eigenvalues of (default mixing * dielectric matrix)
  average eigenvalue GAMMA=   0.8369
  1.7531  0.9092  0.7296  0.4721  0.3203

 Free energy of the ion-electron system (eV)
  ---------------------------------------------------
  alpha Z        PSCENC =       137.59429322
  Ewald energy   TEWEN  =    124003.21518635
  -Hartree energ DENC   =   -139381.31410255
  -exchange      EXHF   =         0.00000000
  -V(xc)+E(xc)   XCENC  =       538.11287348
  PAW double counting   =     15731.71177784   -17026.03116972
  entropy T*S    EENTRO =        -0.03103871
  eigenvalues    EBANDS =      -745.88661676
  atomic energy  EATOM  =     16704.21750749
  Solvation  Ecorr_sol  =         0.00000000
  ---------------------------------------------------
  free energy    TOTEN  =       -38.41128935 eV

  energy without entropy =      -38.38025064  energy(sigma->0) =      -38.39576999


--------------------------------------------------------------------------------------------------------




--------------------------------------- Iteration      1(  11)  ---------------------------------------


    POTLOK:  cpu time      0.0470: real time      0.0479
    SETDIJ:  cpu time      0.0032: real time      0.0032
     EDDAV:  cpu time      3.2244: real time      3.2554
       DOS:  cpu time      0.0003: real time      0.0003
    CHARGE:  cpu time      0.1175: real time      0.1184
    MIXING:  cpu time      0.0013: real time      0.0013
    --------------------------------------------
      LOOP:  cpu time      3.3937: real time      3.4265

 eigenvalue-minimisations  :  2816
 total energy-change (2. order) :-0.2935937E-01  (-0.1005863E-01)
 number of electron     133.0000042 magnetization       0.8193962
 augmentation part       84.2077301 magnetization       0.5254662

 Broyden mixing:
  rms(total) = 0.48194E-01    rms(broyden)= 0.48192E-01
  rms(prec ) = 0.50234E-01
  weight for this iteration     100.00

 eigenvalues of (default mixing * dielectric matrix)
  average eigenvalue GAMMA=   0.8601
  1.8589  1.2612  0.6405  0.6405  0.4225  0.3371

 Free energy of the ion-electron system (eV)
  ---------------------------------------------------
  alpha Z        PSCENC =       137.59429322
  Ewald energy   TEWEN  =    124003.21518635
  -Hartree energ DENC   =   -139378.31635430
  -exchange      EXHF   =         0.00000000
  -V(xc)+E(xc)   XCENC  =       537.75755024
  PAW double counting   =     15743.52766383   -17037.11118137
  entropy T*S    EENTRO =        -0.03258925
  eigenvalues    EBANDS =      -749.29272494
  atomic energy  EATOM  =     16704.21750749
  Solvation  Ecorr_sol  =         0.00000000
  ---------------------------------------------------
  free energy    TOTEN  =       -38.44064872 eV

  energy without entropy =      -38.40805947  energy(sigma->0) =      -38.42435410


--------------------------------------------------------------------------------------------------------




--------------------------------------- Iteration      1(  12)  ---------------------------------------


    POTLOK:  cpu time      0.0445: real time      0.0450
    SETDIJ:  cpu time      0.0032: real time      0.0032
     EDDAV:  cpu time      3.0472: real time      3.0761
       DOS:  cpu time      0.0010: real time      0.0010
    CHARGE:  cpu time      0.1131: real time      0.1140
    MIXING:  cpu time      0.0015: real time      0.0015
    --------------------------------------------
      LOOP:  cpu time      3.2105: real time      3.2408

 eigenvalue-minimisations  :  2720
 total energy-change (2. order) :-0.3730612E-01  (-0.2409770E-02)
 number of electron     133.0000042 magnetization       0.7815575
 augmentation part       84.2451496 magnetization       0.5180767

 Broyden mixing:
  rms(total) = 0.40188E-01    rms(broyden)= 0.40187E-01
  rms(prec ) = 0.41989E-01
  weight for this iteration     100.00

 eigenvalues of (default mixing * dielectric matrix)
  average eigenvalue GAMMA=   0.9125
  2.3019  1.1035  1.1035  0.6723  0.4893  0.3875  0.3291

 Free energy of the ion-electron system (eV)
  ---------------------------------------------------
  alpha Z        PSCENC =       137.59429322
  Ewald energy   TEWEN  =    124003.21518635
  -Hartree energ DENC   =   -139382.21438892
  -exchange      EXHF   =         0.00000000
  -V(xc)+E(xc)   XCENC  =       537.63137302
  PAW double counting   =     15760.75562871   -17055.12395291
  entropy T*S    EENTRO =        -0.03089000
  eigenvalues    EBANDS =      -744.52271179
  atomic energy  EATOM  =     16704.21750749
  Solvation  Ecorr_sol  =         0.00000000
  ---------------------------------------------------
  free energy    TOTEN  =       -38.47795484 eV

  energy without entropy =      -38.44706483  energy(sigma->0) =      -38.46250984


--------------------------------------------------------------------------------------------------------




--------------------------------------- Iteration      1(  13)  ---------------------------------------


    POTLOK:  cpu time      0.0520: real time      0.0526
    SETDIJ:  cpu time      0.0043: real time      0.0043
     EDDAV:  cpu time      2.6406: real time      2.6643
       DOS:  cpu time      0.0012: real time      0.0012
    CHARGE:  cpu time      0.1089: real time      0.1095
    MIXING:  cpu time      0.0015: real time      0.0015
    --------------------------------------------
      LOOP:  cpu time      2.8087: real time      2.8334

 eigenvalue-minimisations  :  2336
 total energy-change (2. order) :-0.3192641E-01  (-0.1302649E-02)
 number of electron     133.0000042 magnetization       0.7465865
 augmentation part       84.2209030 magnetization       0.4862808

 Broyden mixing:
  rms(total) = 0.27107E-01    rms(broyden)= 0.27106E-01
  rms(prec ) = 0.28008E-01
  weight for this iteration     100.00

 eigenvalues of (default mixing * dielectric matrix)
  average eigenvalue GAMMA=   0.9604
  2.6201  1.3980  1.1349  0.6849  0.6849  0.4599  0.3778  0.3221

 Free energy of the ion-electron system (eV)
  ---------------------------------------------------
  alpha Z        PSCENC =       137.59429322
  Ewald energy   TEWEN  =    124003.21518635
  -Hartree energ DENC   =   -139389.91370063
  -exchange      EXHF   =         0.00000000
  -V(xc)+E(xc)   XCENC  =       537.58297113
  PAW double counting   =     15789.39640392   -17085.68538873
  entropy T*S    EENTRO =        -0.03193697
  eigenvalues    EBANDS =      -734.88521704
  atomic energy  EATOM  =     16704.21750749
  Solvation  Ecorr_sol  =         0.00000000
  ---------------------------------------------------
  free energy    TOTEN  =       -38.50988125 eV

  energy without entropy =      -38.47794428  energy(sigma->0) =      -38.49391277


--------------------------------------------------------------------------------------------------------




--------------------------------------- Iteration      1(  14)  ---------------------------------------


    POTLOK:  cpu time      0.0457: real time      0.0462
    SETDIJ:  cpu time      0.0032: real time      0.0032
     EDDAV:  cpu time      3.0579: real time      3.0867
       DOS:  cpu time      0.0003: real time      0.0003
    CHARGE:  cpu time      0.1239: real time      0.1247
    MIXING:  cpu time      0.0018: real time      0.0018
    --------------------------------------------
      LOOP:  cpu time      3.2327: real time      3.2630

 eigenvalue-minimisations  :  2720
 total energy-change (2. order) :-0.3051125E-01  (-0.6103613E-03)
 number of electron     133.0000042 magnetization       0.7117682
 augmentation part       84.2149952 magnetization       0.4730144

 Broyden mixing:
  rms(total) = 0.26011E-01    rms(broyden)= 0.26010E-01
  rms(prec ) = 0.26549E-01
  weight for this iteration     100.00

 eigenvalues of (default mixing * dielectric matrix)
  average eigenvalue GAMMA=   0.9769
  2.8202  1.7675  0.9270  0.9270  0.6639  0.5340  0.4641  0.3657  0.3225

 Free energy of the ion-electron system (eV)
  ---------------------------------------------------
  alpha Z        PSCENC =       137.59429322
  Ewald energy   TEWEN  =    124003.21518635
  -Hartree energ DENC   =   -139395.56388588
  -exchange      EXHF   =         0.00000000
  -V(xc)+E(xc)   XCENC  =       537.55737561
  PAW double counting   =     15796.95940976   -17093.73681507
  entropy T*S    EENTRO =        -0.03135672
  eigenvalues    EBANDS =      -728.75210726
  atomic energy  EATOM  =     16704.21750749
  Solvation  Ecorr_sol  =         0.00000000
  ---------------------------------------------------
  free energy    TOTEN  =       -38.54039250 eV

  energy without entropy =      -38.50903578  energy(sigma->0) =      -38.52471414


--------------------------------------------------------------------------------------------------------




--------------------------------------- Iteration      1(  15)  ---------------------------------------


    POTLOK:  cpu time      0.0448: real time      0.0453
    SETDIJ:  cpu time      0.0031: real time      0.0031
     EDDAV:  cpu time      2.8103: real time      2.8379
       DOS:  cpu time      0.0003: real time      0.0003
    CHARGE:  cpu time      0.1213: real time      0.1220
    MIXING:  cpu time      0.0020: real time      0.0020
    --------------------------------------------
      LOOP:  cpu time      2.9818: real time      3.0107

 eigenvalue-minimisations  :  2464
 total energy-change (2. order) :-0.2973855E-01  (-0.4231327E-03)
 number of electron     133.0000042 magnetization       0.6213840
 augmentation part       84.2288894 magnetization       0.3914890

 Broyden mixing:
  rms(total) = 0.22750E-01    rms(broyden)= 0.22750E-01
  rms(prec ) = 0.23075E-01
  weight for this iteration     100.00

 eigenvalues of (default mixing * dielectric matrix)
  average eigenvalue GAMMA=   1.0914
  3.3195  2.1953  1.4124  0.9164  0.7602  0.7296  0.4735  0.4157  0.3237  0.3682

 Free energy of the ion-electron system (eV)
  ---------------------------------------------------
  alpha Z        PSCENC =       137.59429322
  Ewald energy   TEWEN  =    124003.21518635
  -Hartree energ DENC   =   -139399.98208144
  -exchange      EXHF   =         0.00000000
  -V(xc)+E(xc)   XCENC  =       537.52409219
  PAW double counting   =     15794.01081233   -17090.49348243
  entropy T*S    EENTRO =        -0.03196922
  eigenvalues    EBANDS =      -724.62448956
  atomic energy  EATOM  =     16704.21750749
  Solvation  Ecorr_sol  =         0.00000000
  ---------------------------------------------------
  free energy    TOTEN  =       -38.57013105 eV

  energy without entropy =      -38.53816183  energy(sigma->0) =      -38.55414644


--------------------------------------------------------------------------------------------------------




--------------------------------------- Iteration      1(  16)  ---------------------------------------


    POTLOK:  cpu time      0.0461: real time      0.0470
    SETDIJ:  cpu time      0.0031: real time      0.0031
     EDDAV:  cpu time      2.6716: real time      2.6964
       DOS:  cpu time      0.0007: real time      0.0007
    CHARGE:  cpu time      0.1186: real time      0.1191
    MIXING:  cpu time      0.0022: real time      0.0022
    --------------------------------------------
      LOOP:  cpu time      2.8422: real time      2.8685

 eigenvalue-minimisations  :  2304
 total energy-change (2. order) :-0.6539618E-01  (-0.1609936E-02)
 number of electron     133.0000042 magnetization       0.5369708
 augmentation part       84.2286163 magnetization       0.3425086

 Broyden mixing:
  rms(total) = 0.18282E-01    rms(broyden)= 0.18282E-01
  rms(prec ) = 0.18408E-01
  weight for this iteration     100.00

 eigenvalues of (default mixing * dielectric matrix)
  average eigenvalue GAMMA=   1.3602
  6.0003  2.5868  1.5417  0.9440  0.9440  0.7158  0.6779  0.4664  0.3236  0.3996
  0.3623

 Free energy of the ion-electron system (eV)
  ---------------------------------------------------
  alpha Z        PSCENC =       137.59429322
  Ewald energy   TEWEN  =    124003.21518635
  -Hartree energ DENC   =   -139409.74815997
  -exchange      EXHF   =         0.00000000
  -V(xc)+E(xc)   XCENC  =       537.52229416
  PAW double counting   =     15782.54790759   -17078.37252836
  entropy T*S    EENTRO =        -0.03204662
  eigenvalues    EBANDS =      -715.57998108
  atomic energy  EATOM  =     16704.21750749
  Solvation  Ecorr_sol  =         0.00000000
  ---------------------------------------------------
  free energy    TOTEN  =       -38.63552723 eV

  energy without entropy =      -38.60348060  energy(sigma->0) =      -38.61950392


--------------------------------------------------------------------------------------------------------




--------------------------------------- Iteration      1(  17)  ---------------------------------------


    POTLOK:  cpu time      0.0510: real time      0.0517
    SETDIJ:  cpu time      0.0032: real time      0.0032
     EDDAV:  cpu time      2.5333: real time      2.5573
       DOS:  cpu time      0.0004: real time      0.0004
    CHARGE:  cpu time      0.1110: real time      0.1115
    MIXING:  cpu time      0.0022: real time      0.0022
    --------------------------------------------
      LOOP:  cpu time      2.7010: real time      2.7262

 eigenvalue-minimisations  :  2272
 total energy-change (2. order) :-0.6052178E-01  (-0.6556865E-03)
 number of electron     133.0000042 magnetization       0.4768534
 augmentation part       84.2180702 magnetization       0.3126595

 Broyden mixing:
  rms(total) = 0.15178E-01    rms(broyden)= 0.15178E-01
  rms(prec ) = 0.15372E-01
  weight for this iteration     100.00

 eigenvalues of (default mixing * dielectric matrix)
  average eigenvalue GAMMA=   1.4726
  7.7023  2.6047  1.5943  1.0827  1.0827  0.7176  0.7176  0.6070  0.4657  0.3236
  0.4084  0.3650

 Free energy of the ion-electron system (eV)
  ---------------------------------------------------
  alpha Z        PSCENC =       137.59429322
  Ewald energy   TEWEN  =    124003.21518635
  -Hartree energ DENC   =   -139416.66010382
  -exchange      EXHF   =         0.00000000
  -V(xc)+E(xc)   XCENC  =       537.50802661
  PAW double counting   =     15776.97240253   -17072.61000315
  entropy T*S    EENTRO =        -0.03247508
  eigenvalues    EBANDS =      -708.90088315
  atomic energy  EATOM  =     16704.21750749
  Solvation  Ecorr_sol  =         0.00000000
  ---------------------------------------------------
  free energy    TOTEN  =       -38.69604900 eV

  energy without entropy =      -38.66357392  energy(sigma->0) =      -38.67981146


--------------------------------------------------------------------------------------------------------




--------------------------------------- Iteration      1(  18)  ---------------------------------------


    POTLOK:  cpu time      0.0449: real time      0.0454
    SETDIJ:  cpu time      0.0031: real time      0.0031
     EDDAV:  cpu time      2.7530: real time      2.7784
       DOS:  cpu time      0.0003: real time      0.0003
    CHARGE:  cpu time      0.1112: real time      0.1117
    MIXING:  cpu time      0.0025: real time      0.0025
    --------------------------------------------
      LOOP:  cpu time      2.9150: real time      2.9416

 eigenvalue-minimisations  :  2432
 total energy-change (2. order) :-0.4502436E-01  (-0.2270568E-03)
 number of electron     133.0000042 magnetization       0.4014323
 augmentation part       84.2114724 magnetization       0.2585783

 Broyden mixing:
  rms(total) = 0.13766E-01    rms(broyden)= 0.13766E-01
  rms(prec ) = 0.14050E-01
  weight for this iteration     100.00

 eigenvalues of (default mixing * dielectric matrix)
  average eigenvalue GAMMA=   1.5707
  9.2182  2.6130  1.9509  1.2441  1.1479  0.7808  0.7808  0.6540  0.3236  0.3636
  0.4050  0.4769  0.4609

 Free energy of the ion-electron system (eV)
  ---------------------------------------------------
  alpha Z        PSCENC =       137.59429322
  Ewald energy   TEWEN  =    124003.21518635
  -Hartree energ DENC   =   -139418.95702714
  -exchange      EXHF   =         0.00000000
  -V(xc)+E(xc)   XCENC  =       537.47176889
  PAW double counting   =     15778.07033487   -17073.87051920
  entropy T*S    EENTRO =        -0.03275590
  eigenvalues    EBANDS =      -706.44986194
  atomic energy  EATOM  =     16704.21750749
  Solvation  Ecorr_sol  =         0.00000000
  ---------------------------------------------------
  free energy    TOTEN  =       -38.74107336 eV

  energy without entropy =      -38.70831745  energy(sigma->0) =      -38.72469540


--------------------------------------------------------------------------------------------------------




--------------------------------------- Iteration      1(  19)  ---------------------------------------


    POTLOK:  cpu time      0.0440: real time      0.0523
    SETDIJ:  cpu time      0.0033: real time      0.0033
     EDDAV:  cpu time      2.6339: real time      2.6596
       DOS:  cpu time      0.0010: real time      0.0010
    CHARGE:  cpu time      0.1142: real time      0.1151
    MIXING:  cpu time      0.0026: real time      0.0026
    --------------------------------------------
      LOOP:  cpu time      2.7990: real time      2.8340

 eigenvalue-minimisations  :  2176
 total energy-change (2. order) :-0.4908520E-01  (-0.1169194E-03)
 number of electron     133.0000042 magnetization       0.3113086
 augmentation part       84.2155928 magnetization       0.1939135

 Broyden mixing:
  rms(total) = 0.10873E-01    rms(broyden)= 0.10873E-01
  rms(prec ) = 0.11124E-01
  weight for this iteration     100.00

 eigenvalues of (default mixing * dielectric matrix)
  average eigenvalue GAMMA=   1.7934
 11.5575  3.2460  2.5131  1.3395  1.3395  0.8746  0.8746  0.7215  0.6453  0.3236
  0.3643  0.4671  0.4031  0.4381

 Free energy of the ion-electron system (eV)
  ---------------------------------------------------
  alpha Z        PSCENC =       137.59429322
  Ewald energy   TEWEN  =    124003.21518635
  -Hartree energ DENC   =   -139418.65502099
  -exchange      EXHF   =         0.00000000
  -V(xc)+E(xc)   XCENC  =       537.40255332
  PAW double counting   =     15781.47139741   -17077.49108755
  entropy T*S    EENTRO =        -0.03302869
  eigenvalues    EBANDS =      -706.51195913
  atomic energy  EATOM  =     16704.21750749
  Solvation  Ecorr_sol  =         0.00000000
  ---------------------------------------------------
  free energy    TOTEN  =       -38.79015855 eV

  energy without entropy =      -38.75712986  energy(sigma->0) =      -38.77364421


--------------------------------------------------------------------------------------------------------




--------------------------------------- Iteration      1(  20)  ---------------------------------------


    POTLOK:  cpu time      0.0473: real time      0.0504
    SETDIJ:  cpu time      0.0032: real time      0.0032
     EDDAV:  cpu time      2.5123: real time      2.5356
       DOS:  cpu time      0.0003: real time      0.0003
    CHARGE:  cpu time      0.1166: real time      0.1176
    MIXING:  cpu time      0.0026: real time      0.0026
    --------------------------------------------
      LOOP:  cpu time      2.6822: real time      2.7097

 eigenvalue-minimisations  :  2176
 total energy-change (2. order) :-0.4864233E-01  (-0.1257370E-03)
 number of electron     133.0000042 magnetization       0.2303432
 augmentation part       84.2272987 magnetization       0.1445573

 Broyden mixing:
  rms(total) = 0.92307E-02    rms(broyden)= 0.92305E-02
  rms(prec ) = 0.94108E-02
  weight for this iteration     100.00

 eigenvalues of (default mixing * dielectric matrix)
  average eigenvalue GAMMA=   1.9453
 13.5922  4.0969  2.5433  1.6142  1.1978  1.1978  0.8170  0.8170  0.6558  0.6558
  0.3236  0.3643  0.4664  0.4050  0.4322

 Free energy of the ion-electron system (eV)
  ---------------------------------------------------
  alpha Z        PSCENC =       137.59429322
  Ewald energy   TEWEN  =    124003.21518635
  -Hartree energ DENC   =   -139415.55870648
  -exchange      EXHF   =         0.00000000
  -V(xc)+E(xc)   XCENC  =       537.32494667
  PAW double counting   =     15782.85602095   -17078.90123389
  entropy T*S    EENTRO =        -0.03318880
  eigenvalues    EBANDS =      -709.55362641
  atomic energy  EATOM  =     16704.21750749
  Solvation  Ecorr_sol  =         0.00000000
  ---------------------------------------------------
  free energy    TOTEN  =       -38.83880089 eV

  energy without entropy =      -38.80561209  energy(sigma->0) =      -38.82220649


--------------------------------------------------------------------------------------------------------




--------------------------------------- Iteration      1(  21)  ---------------------------------------


    POTLOK:  cpu time      0.0445: real time      0.0449
    SETDIJ:  cpu time      0.0031: real time      0.0031
     EDDAV:  cpu time      2.5501: real time      2.5739
       DOS:  cpu time      0.0003: real time      0.0003
    CHARGE:  cpu time      0.1165: real time      0.1170
    MIXING:  cpu time      0.0029: real time      0.0029
    --------------------------------------------
      LOOP:  cpu time      2.7174: real time      2.7422

 eigenvalue-minimisations  :  2240
 total energy-change (2. order) :-0.2706633E-01  (-0.8929607E-04)
 number of electron     133.0000042 magnetization       0.1575175
 augmentation part       84.2258494 magnetization       0.0996503

 Broyden mixing:
  rms(total) = 0.74611E-02    rms(broyden)= 0.74610E-02
  rms(prec ) = 0.76769E-02
  weight for this iteration     100.00

 eigenvalues of (default mixing * dielectric matrix)
  average eigenvalue GAMMA=   2.2453
 17.4285  5.4819  2.5621  2.1589  1.4273  1.0747  0.8711  0.8711  0.7453  0.6813
  0.6309  0.3236  0.4669  0.3643  0.4052  0.4311

 Free energy of the ion-electron system (eV)
  ---------------------------------------------------
  alpha Z        PSCENC =       137.59429322
  Ewald energy   TEWEN  =    124003.21518635
  -Hartree energ DENC   =   -139412.99041102
  -exchange      EXHF   =         0.00000000
  -V(xc)+E(xc)   XCENC  =       537.29683207
  PAW double counting   =     15783.36480198   -17079.43837924
  entropy T*S    EENTRO =        -0.03330153
  eigenvalues    EBANDS =      -712.09239653
  atomic energy  EATOM  =     16704.21750749
  Solvation  Ecorr_sol  =         0.00000000
  ---------------------------------------------------
  free energy    TOTEN  =       -38.86586722 eV

  energy without entropy =      -38.83256569  energy(sigma->0) =      -38.84921645


--------------------------------------------------------------------------------------------------------




--------------------------------------- Iteration      1(  22)  ---------------------------------------


    POTLOK:  cpu time      0.0450: real time      0.0454
    SETDIJ:  cpu time      0.0039: real time      0.0039
     EDDAV:  cpu time      2.3946: real time      2.4177
       DOS:  cpu time      0.0003: real time      0.0003
    CHARGE:  cpu time      0.1165: real time      0.1174
    MIXING:  cpu time      0.0031: real time      0.0031
    --------------------------------------------
      LOOP:  cpu time      2.5634: real time      2.5878

 eigenvalue-minimisations  :  2048
 total energy-change (2. order) :-0.1659721E-01  (-0.7784466E-04)
 number of electron     133.0000042 magnetization       0.1094022
 augmentation part       84.2188442 magnetization       0.0735842

 Broyden mixing:
  rms(total) = 0.55245E-02    rms(broyden)= 0.55243E-02
  rms(prec ) = 0.57057E-02
  weight for this iteration     100.00

 eigenvalues of (default mixing * dielectric matrix)
  average eigenvalue GAMMA=   2.4206
 20.1875  6.2796  2.7197  2.3868  1.3779  1.3779  1.0724  0.8656  0.8656  0.6989
  0.6989  0.6287  0.3236  0.3642  0.4670  0.4048  0.4318

 Free energy of the ion-electron system (eV)
  ---------------------------------------------------
  alpha Z        PSCENC =       137.59429322
  Ewald energy   TEWEN  =    124003.21518635
  -Hartree energ DENC   =   -139410.94920006
  -exchange      EXHF   =         0.00000000
  -V(xc)+E(xc)   XCENC  =       537.28813174
  PAW double counting   =     15783.79052213   -17079.89669119
  entropy T*S    EENTRO =        -0.03336446
  eigenvalues    EBANDS =      -714.10884966
  atomic energy  EATOM  =     16704.21750749
  Solvation  Ecorr_sol  =         0.00000000
  ---------------------------------------------------
  free energy    TOTEN  =       -38.88246443 eV

  energy without entropy =      -38.84909997  energy(sigma->0) =      -38.86578220


--------------------------------------------------------------------------------------------------------




--------------------------------------- Iteration      1(  23)  ---------------------------------------


    POTLOK:  cpu time      0.0449: real time      0.0454
    SETDIJ:  cpu time      0.0037: real time      0.0038
     EDDAV:  cpu time      2.3464: real time      2.3690
       DOS:  cpu time      0.0012: real time      0.0013
    CHARGE:  cpu time      0.1065: real time      0.1073
    MIXING:  cpu time      0.0031: real time      0.0031
    --------------------------------------------
      LOOP:  cpu time      2.5059: real time      2.5297

 eigenvalue-minimisations  :  1984
 total energy-change (2. order) :-0.1997474E-01  (-0.4776034E-04)
 number of electron     133.0000042 magnetization       0.0522506
 augmentation part       84.2197873 magnetization       0.0291640

 Broyden mixing:
  rms(total) = 0.42453E-02    rms(broyden)= 0.42452E-02
  rms(prec ) = 0.43791E-02
  weight for this iteration     100.00

 eigenvalues of (default mixing * dielectric matrix)
  average eigenvalue GAMMA=   2.5904
 22.8085  6.9143  3.3545  2.5274  1.9074  1.3420  1.1838  0.9142  0.9142  0.7418
  0.7418  0.6595  0.6259  0.3236  0.3642  0.4670  0.4048  0.4318

 Free energy of the ion-electron system (eV)
  ---------------------------------------------------
  alpha Z        PSCENC =       137.59429322
  Ewald energy   TEWEN  =    124003.21518635
  -Hartree energ DENC   =   -139409.46592950
  -exchange      EXHF   =         0.00000000
  -V(xc)+E(xc)   XCENC  =       537.26757799
  PAW double counting   =     15783.00907782   -17079.02059969
  entropy T*S    EENTRO =        -0.03344406
  eigenvalues    EBANDS =      -715.68610880
  atomic energy  EATOM  =     16704.21750749
  Solvation  Ecorr_sol  =         0.00000000
  ---------------------------------------------------
  free energy    TOTEN  =       -38.90243917 eV

  energy without entropy =      -38.86899511  energy(sigma->0) =      -38.88571714


--------------------------------------------------------------------------------------------------------




--------------------------------------- Iteration      1(  24)  ---------------------------------------


    POTLOK:  cpu time      0.0443: real time      0.0448
    SETDIJ:  cpu time      0.0039: real time      0.0039
     EDDAV:  cpu time      2.5576: real time      2.5811
       DOS:  cpu time      0.0003: real time      0.0003
    CHARGE:  cpu time      0.1069: real time      0.1078
    MIXING:  cpu time      0.0026: real time      0.0026
    --------------------------------------------
      LOOP:  cpu time      2.7155: real time      2.7405

 eigenvalue-minimisations  :  2272
 total energy-change (2. order) :-0.2298196E-01  (-0.5596373E-04)
 number of electron     133.0000042 magnetization       0.0339109
 augmentation part       84.2208344 magnetization       0.0246064

 Broyden mixing:
  rms(total) = 0.26601E-02    rms(broyden)= 0.26600E-02
  rms(prec ) = 0.27214E-02
  weight for this iteration     100.00

 eigenvalues of (default mixing * dielectric matrix)
  average eigenvalue GAMMA=   2.6604
 24.2776  7.6613  3.9621  2.6008  2.0230  1.3219  1.1436  1.1436  0.8739  0.8739
  0.7420  0.6907  0.6371  0.6051  0.3236  0.3642  0.4670  0.4048  0.4318

 Free energy of the ion-electron system (eV)
  ---------------------------------------------------
  alpha Z        PSCENC =       137.59429322
  Ewald energy   TEWEN  =    124003.21518635
  -Hartree energ DENC   =   -139408.07802496
  -exchange      EXHF   =         0.00000000
  -V(xc)+E(xc)   XCENC  =       537.24714471
  PAW double counting   =     15781.50559172   -17077.40490092
  entropy T*S    EENTRO =        -0.03343542
  eigenvalues    EBANDS =      -717.18878334
  atomic energy  EATOM  =     16704.21750749
  Solvation  Ecorr_sol  =         0.00000000
  ---------------------------------------------------
  free energy    TOTEN  =       -38.92542114 eV

  energy without entropy =      -38.89198572  energy(sigma->0) =      -38.90870343


--------------------------------------------------------------------------------------------------------




--------------------------------------- Iteration      1(  25)  ---------------------------------------


    POTLOK:  cpu time      0.0437: real time      0.0442
    SETDIJ:  cpu time      0.0038: real time      0.0038
     EDDAV:  cpu time      2.1165: real time      2.1375
       DOS:  cpu time      0.0004: real time      0.0007
    CHARGE:  cpu time      0.1085: real time      0.1090
    MIXING:  cpu time      0.0044: real time      0.0044
    --------------------------------------------
      LOOP:  cpu time      2.2773: real time      2.2997

 eigenvalue-minimisations  :  1728
 total energy-change (2. order) :-0.7856868E-02  (-0.9789283E-05)
 number of electron     133.0000042 magnetization       0.0147666
 augmentation part       84.2207762 magnetization       0.0102907

 Broyden mixing:
  rms(total) = 0.18490E-02    rms(broyden)= 0.18489E-02
  rms(prec ) = 0.19242E-02
  weight for this iteration     100.00

 eigenvalues of (default mixing * dielectric matrix)
  average eigenvalue GAMMA=   2.8278
 26.8378  8.6880  4.7424  2.6808  2.2783  1.4661  1.4661  1.1370  0.9166  0.9166
  0.7592  0.7592  0.3236  0.3642  0.4048  0.4670  0.4318  0.6590  0.6474  0.6105

 Free energy of the ion-electron system (eV)
  ---------------------------------------------------
  alpha Z        PSCENC =       137.59429322
  Ewald energy   TEWEN  =    124003.21518635
  -Hartree energ DENC   =   -139407.45887778
  -exchange      EXHF   =         0.00000000
  -V(xc)+E(xc)   XCENC  =       537.23795040
  PAW double counting   =     15781.56273504   -17077.48614512
  entropy T*S    EENTRO =        -0.03346091
  eigenvalues    EBANDS =      -717.78246671
  atomic energy  EATOM  =     16704.21750749
  Solvation  Ecorr_sol  =         0.00000000
  ---------------------------------------------------
  free energy    TOTEN  =       -38.93327800 eV

  energy without entropy =      -38.89981710  energy(sigma->0) =      -38.91654755


--------------------------------------------------------------------------------------------------------




--------------------------------------- Iteration      1(  26)  ---------------------------------------


    POTLOK:  cpu time      0.0533: real time      0.0537
    SETDIJ:  cpu time      0.0035: real time      0.0036
     EDDAV:  cpu time      2.1793: real time      2.2007
       DOS:  cpu time      0.0012: real time      0.0012
    CHARGE:  cpu time      0.1076: real time      0.1081
    MIXING:  cpu time      0.0028: real time      0.0028
    --------------------------------------------
      LOOP:  cpu time      2.3477: real time      2.3701

 eigenvalue-minimisations  :  1824
 total energy-change (2. order) :-0.4777755E-02  (-0.4700089E-05)
 number of electron     133.0000042 magnetization       0.0067192
 augmentation part       84.2209620 magnetization       0.0064598

 Broyden mixing:
  rms(total) = 0.11738E-02    rms(broyden)= 0.11737E-02
  rms(prec ) = 0.12534E-02
  weight for this iteration     100.00

 eigenvalues of (default mixing * dielectric matrix)
  average eigenvalue GAMMA=   2.8402
 27.8042  9.1826  4.9816  2.7238  2.4242  1.7153  1.4042  1.0780  1.0780  0.8972
  0.8972  0.7519  0.7519  0.6707  0.6707  0.6208  0.3236  0.3642  0.4670  0.4048
  0.4318

 Free energy of the ion-electron system (eV)
  ---------------------------------------------------
  alpha Z        PSCENC =       137.59429322
  Ewald energy   TEWEN  =    124003.21518635
  -Hartree energ DENC   =   -139406.97719363
  -exchange      EXHF   =         0.00000000
  -V(xc)+E(xc)   XCENC  =       537.22905128
  PAW double counting   =     15782.00225021   -17077.98013487
  entropy T*S    EENTRO =        -0.03344629
  eigenvalues    EBANDS =      -718.20556953
  atomic energy  EATOM  =     16704.21750749
  Solvation  Ecorr_sol  =         0.00000000
  ---------------------------------------------------
  free energy    TOTEN  =       -38.93805576 eV

  energy without entropy =      -38.90460947  energy(sigma->0) =      -38.92133262


--------------------------------------------------------------------------------------------------------




--------------------------------------- Iteration      1(  27)  ---------------------------------------


    POTLOK:  cpu time      0.0441: real time      0.0448
    SETDIJ:  cpu time      0.0032: real time      0.0032
     EDDAV:  cpu time      2.0309: real time      2.0504
       DOS:  cpu time      0.0003: real time      0.0003
    CHARGE:  cpu time      0.1170: real time      0.1175
    MIXING:  cpu time      0.0030: real time      0.0030
    --------------------------------------------
      LOOP:  cpu time      2.1985: real time      2.2193

 eigenvalue-minimisations  :  1664
 total energy-change (2. order) :-0.2235803E-02  (-0.1785575E-05)
 number of electron     133.0000042 magnetization       0.0031706
 augmentation part       84.2211250 magnetization       0.0037380

 Broyden mixing:
  rms(total) = 0.79633E-03    rms(broyden)= 0.79631E-03
  rms(prec ) = 0.86234E-03
  weight for this iteration     100.00

 eigenvalues of (default mixing * dielectric matrix)
  average eigenvalue GAMMA=   2.9076
 28.9822 10.1522  5.3407  3.1079  2.5619  1.9945  1.3064  1.3064  1.2385  0.8924
  0.8924  0.7823  0.7823  0.3236  0.3642  0.4048  0.4670  0.4318  0.7137  0.6505
  0.6505  0.6201

 Free energy of the ion-electron system (eV)
  ---------------------------------------------------
  alpha Z        PSCENC =       137.59429322
  Ewald energy   TEWEN  =    124003.21518635
  -Hartree energ DENC   =   -139406.97951354
  -exchange      EXHF   =         0.00000000
  -V(xc)+E(xc)   XCENC  =       537.22456980
  PAW double counting   =     15782.45152427   -17078.46499197
  entropy T*S    EENTRO =        -0.03345183
  eigenvalues    EBANDS =      -718.16541536
  atomic energy  EATOM  =     16704.21750749
  Solvation  Ecorr_sol  =         0.00000000
  ---------------------------------------------------
  free energy    TOTEN  =       -38.94029156 eV

  energy without entropy =      -38.90683973  energy(sigma->0) =      -38.92356565


--------------------------------------------------------------------------------------------------------




--------------------------------------- Iteration      1(  28)  ---------------------------------------


    POTLOK:  cpu time      0.0448: real time      0.0454
    SETDIJ:  cpu time      0.0031: real time      0.0031
     EDDAV:  cpu time      1.9695: real time      1.9887
       DOS:  cpu time      0.0003: real time      0.0003
    CHARGE:  cpu time      0.1197: real time      0.1203
    MIXING:  cpu time      0.0036: real time      0.0036
    --------------------------------------------
      LOOP:  cpu time      2.1411: real time      2.1615

 eigenvalue-minimisations  :  1568
 total energy-change (2. order) :-0.1209257E-02  (-0.1283906E-05)
 number of electron     133.0000042 magnetization       0.0020275
 augmentation part       84.2214520 magnetization       0.0028234

 Broyden mixing:
  rms(total) = 0.54094E-03    rms(broyden)= 0.54094E-03
  rms(prec ) = 0.59814E-03
  weight for this iteration     100.00

 eigenvalues of (default mixing * dielectric matrix)
  average eigenvalue GAMMA=   2.8807
 29.2424 10.4897  5.5399  3.3846  2.5723  2.1072  1.4309  1.4309  1.0584  1.0584
  0.9046  0.9046  0.7681  0.7681  0.3236  0.3642  0.4048  0.4670  0.4318  0.6841
  0.6841  0.6265  0.6095

 Free energy of the ion-electron system (eV)
  ---------------------------------------------------
  alpha Z        PSCENC =       137.59429322
  Ewald energy   TEWEN  =    124003.21518635
  -Hartree energ DENC   =   -139407.06886483
  -exchange      EXHF   =         0.00000000
  -V(xc)+E(xc)   XCENC  =       537.22257473
  PAW double counting   =     15782.62271052   -17078.64266032
  entropy T*S    EENTRO =        -0.03344845
  eigenvalues    EBANDS =      -718.06879955
  atomic energy  EATOM  =     16704.21750749
  Solvation  Ecorr_sol  =         0.00000000
  ---------------------------------------------------
  free energy    TOTEN  =       -38.94150082 eV

  energy without entropy =      -38.90805237  energy(sigma->0) =      -38.92477660


--------------------------------------------------------------------------------------------------------




--------------------------------------- Iteration      1(  29)  ---------------------------------------


    POTLOK:  cpu time      0.0445: real time      0.0453
    SETDIJ:  cpu time      0.0031: real time      0.0031
     EDDAV:  cpu time      2.0674: real time      2.0873
       DOS:  cpu time      0.0003: real time      0.0003
    CHARGE:  cpu time      0.1209: real time      0.1215
    MIXING:  cpu time      0.0039: real time      0.0039
    --------------------------------------------
      LOOP:  cpu time      2.2402: real time      2.2614

 eigenvalue-minimisations  :  1600
 total energy-change (2. order) :-0.5362418E-03  (-0.4976417E-06)
 number of electron     133.0000042 magnetization       0.0003812
 augmentation part       84.2213747 magnetization       0.0014183

 Broyden mixing:
  rms(total) = 0.33850E-03    rms(broyden)= 0.33850E-03
  rms(prec ) = 0.38447E-03
  weight for this iteration     100.00

 eigenvalues of (default mixing * dielectric matrix)
  average eigenvalue GAMMA=   2.8769
 29.6745 10.8278  5.8085  3.6928  2.6046  2.3416  1.7741  1.3029  1.1512  1.1512
  0.9241  0.8489  0.8489  0.3236  0.3642  0.4048  0.4318  0.4670  0.7550  0.7550
  0.6767  0.6767  0.6271  0.6121

 Free energy of the ion-electron system (eV)
  ---------------------------------------------------
  alpha Z        PSCENC =       137.59429322
  Ewald energy   TEWEN  =    124003.21518635
  -Hartree energ DENC   =   -139407.20252927
  -exchange      EXHF   =         0.00000000
  -V(xc)+E(xc)   XCENC  =       537.22274726
  PAW double counting   =     15782.52621939   -17078.53351627
  entropy T*S    EENTRO =        -0.03344617
  eigenvalues    EBANDS =      -717.94849906
  atomic energy  EATOM  =     16704.21750749
  Solvation  Ecorr_sol  =         0.00000000
  ---------------------------------------------------
  free energy    TOTEN  =       -38.94203706 eV

  energy without entropy =      -38.90859089  energy(sigma->0) =      -38.92531398


--------------------------------------------------------------------------------------------------------




--------------------------------------- Iteration      1(  30)  ---------------------------------------


    POTLOK:  cpu time      0.0458: real time      0.0468
    SETDIJ:  cpu time      0.0031: real time      0.0031
     EDDAV:  cpu time      2.1608: real time      2.1802
       DOS:  cpu time      0.0003: real time      0.0003
    CHARGE:  cpu time      0.1243: real time      0.1251
    MIXING:  cpu time      0.0054: real time      0.0054
    --------------------------------------------
      LOOP:  cpu time      2.3398: real time      2.3610

 eigenvalue-minimisations  :  1664
 total energy-change (2. order) :-0.3051616E-03  (-0.2171498E-06)
 number of electron     133.0000042 magnetization       0.0006564
 augmentation part       84.2210828 magnetization       0.0017916

 Broyden mixing:
  rms(total) = 0.24719E-03    rms(broyden)= 0.24719E-03
  rms(prec ) = 0.28302E-03
  weight for this iteration     100.00

 eigenvalues of (default mixing * dielectric matrix)
  average eigenvalue GAMMA=   2.8293
 29.6809 10.9658  5.9197  3.7868  2.6276  2.4221  1.8570  1.3344  1.2411  1.2411
  1.0123  0.9016  0.9016  0.3236  0.3642  0.4048  0.4318  0.4670  0.7705  0.7705
  0.7263  0.7082  0.6645  0.6210  0.5885

 Free energy of the ion-electron system (eV)
  ---------------------------------------------------
  alpha Z        PSCENC =       137.59429322
  Ewald energy   TEWEN  =    124003.21518635
  -Hartree energ DENC   =   -139407.32583139
  -exchange      EXHF   =         0.00000000
  -V(xc)+E(xc)   XCENC  =       537.22328539
  PAW double counting   =     15782.48291272   -17078.48505009
  entropy T*S    EENTRO =        -0.03344184
  eigenvalues    EBANDS =      -717.83120408
  atomic energy  EATOM  =     16704.21750749
  Solvation  Ecorr_sol  =         0.00000000
  ---------------------------------------------------
  free energy    TOTEN  =       -38.94234222 eV

  energy without entropy =      -38.90890038  energy(sigma->0) =      -38.92562130


--------------------------------------------------------------------------------------------------------




--------------------------------------- Iteration      1(  31)  ---------------------------------------


    POTLOK:  cpu time      0.0450: real time      0.0455
    SETDIJ:  cpu time      0.0031: real time      0.0031
     EDDAV:  cpu time      2.0703: real time      2.0897
       DOS:  cpu time      0.0003: real time      0.0003
    CHARGE:  cpu time      0.1120: real time      0.1130
    MIXING:  cpu time      0.0054: real time      0.0054
    --------------------------------------------
      LOOP:  cpu time      2.2362: real time      2.2571

 eigenvalue-minimisations  :  1632
 total energy-change (2. order) :-0.1877611E-03  (-0.1368264E-06)
 number of electron     133.0000042 magnetization       0.0002759
 augmentation part       84.2210562 magnetization       0.0010532

 Broyden mixing:
  rms(total) = 0.17036E-03    rms(broyden)= 0.17035E-03
  rms(prec ) = 0.19037E-03
  weight for this iteration     100.00

 eigenvalues of (default mixing * dielectric matrix)
  average eigenvalue GAMMA=   2.8133
 29.7381 11.0570  6.0572  4.2685  2.7409  2.5635  2.0512  1.5734  1.2624  1.2624
  1.1271  0.9039  0.9039  0.3236  0.3642  0.4048  0.4318  0.4670  0.7531  0.7531
  0.7857  0.7857  0.7033  0.6551  0.6215  0.5881

 Free energy of the ion-electron system (eV)
  ---------------------------------------------------
  alpha Z        PSCENC =       137.59429322
  Ewald energy   TEWEN  =    124003.21518635
  -Hartree energ DENC   =   -139407.48147655
  -exchange      EXHF   =         0.00000000
  -V(xc)+E(xc)   XCENC  =       537.22357627
  PAW double counting   =     15782.43575715   -17078.43285331
  entropy T*S    EENTRO =        -0.03344750
  eigenvalues    EBANDS =      -717.68107311
  atomic energy  EATOM  =     16704.21750749
  Solvation  Ecorr_sol  =         0.00000000
  ---------------------------------------------------
  free energy    TOTEN  =       -38.94252998 eV

  energy without entropy =      -38.90908249  energy(sigma->0) =      -38.92580624


--------------------------------------------------------------------------------------------------------




--------------------------------------- Iteration      1(  32)  ---------------------------------------


    POTLOK:  cpu time      0.0460: real time      0.0465
    SETDIJ:  cpu time      0.0032: real time      0.0032
     EDDAV:  cpu time      1.9801: real time      1.9983
       DOS:  cpu time      0.0003: real time      0.0003
    CHARGE:  cpu time      0.1177: real time      0.1186
    MIXING:  cpu time      0.0043: real time      0.0043
    --------------------------------------------
      LOOP:  cpu time      2.1516: real time      2.1712

 eigenvalue-minimisations  :  1568
 total energy-change (2. order) :-0.1611491E-03  (-0.2004768E-06)
 number of electron     133.0000042 magnetization      -0.0000377
 augmentation part       84.2209912 magnetization       0.0005761

 Broyden mixing:
  rms(total) = 0.13213E-03    rms(broyden)= 0.13213E-03
  rms(prec ) = 0.14165E-03
  weight for this iteration     100.00

 eigenvalues of (default mixing * dielectric matrix)
  average eigenvalue GAMMA=   2.8126
 29.7905 11.1316  6.3601  4.8534  3.0468  2.6131  2.2716  1.7719  1.3081  1.2401
  1.2401  0.9216  0.9216  0.8258  0.8258  0.7885  0.7885  0.3236  0.3642  0.4048
  0.4318  0.4670  0.6984  0.6984  0.6308  0.6308  0.5919

 Free energy of the ion-electron system (eV)
  ---------------------------------------------------
  alpha Z        PSCENC =       137.59429322
  Ewald energy   TEWEN  =    124003.21518635
  -Hartree energ DENC   =   -139407.60868889
  -exchange      EXHF   =         0.00000000
  -V(xc)+E(xc)   XCENC  =       537.22383039
  PAW double counting   =     15782.37395051   -17078.36699640
  entropy T*S    EENTRO =        -0.03344450
  eigenvalues    EBANDS =      -717.55832931
  atomic energy  EATOM  =     16704.21750749
  Solvation  Ecorr_sol  =         0.00000000
  ---------------------------------------------------
  free energy    TOTEN  =       -38.94269113 eV

  energy without entropy =      -38.90924663  energy(sigma->0) =      -38.92596888


--------------------------------------------------------------------------------------------------------




--------------------------------------- Iteration      1(  33)  ---------------------------------------


    POTLOK:  cpu time      0.0458: real time      0.0463
    SETDIJ:  cpu time      0.0032: real time      0.0032
     EDDAV:  cpu time      1.9000: real time      1.9174
       DOS:  cpu time      0.0003: real time      0.0003
    CHARGE:  cpu time      0.1064: real time      0.1072
    MIXING:  cpu time      0.0039: real time      0.0039
    --------------------------------------------
      LOOP:  cpu time      2.0596: real time      2.0784

 eigenvalue-minimisations  :  1504
 total energy-change (2. order) :-0.1093882E-03  (-0.6272260E-07)
 number of electron     133.0000042 magnetization       0.0000350
 augmentation part       84.2210696 magnetization       0.0004859

 Broyden mixing:
  rms(total) = 0.11159E-03    rms(broyden)= 0.11158E-03
  rms(prec ) = 0.11547E-03
  weight for this iteration     100.00

 eigenvalues of (default mixing * dielectric matrix)
  average eigenvalue GAMMA=   2.8346
 29.8083 11.2517  7.0809  5.4165  3.4748  2.5887  2.3901  1.9748  1.4390  1.4390
  1.1311  1.1311  0.9943  0.8811  0.8811  0.3236  0.3642  0.4048  0.4318  0.4670
  0.7438  0.7438  0.7319  0.7319  0.6841  0.6410  0.6226  0.5956

 Free energy of the ion-electron system (eV)
  ---------------------------------------------------
  alpha Z        PSCENC =       137.59429322
  Ewald energy   TEWEN  =    124003.21518635
  -Hartree energ DENC   =   -139407.69299411
  -exchange      EXHF   =         0.00000000
  -V(xc)+E(xc)   XCENC  =       537.22355857
  PAW double counting   =     15782.38030649   -17078.37517222
  entropy T*S    EENTRO =        -0.03344517
  eigenvalues    EBANDS =      -717.47204115
  atomic energy  EATOM  =     16704.21750749
  Solvation  Ecorr_sol  =         0.00000000
  ---------------------------------------------------
  free energy    TOTEN  =       -38.94280052 eV

  energy without entropy =      -38.90935535  energy(sigma->0) =      -38.92607794


--------------------------------------------------------------------------------------------------------




--------------------------------------- Iteration      1(  34)  ---------------------------------------


    POTLOK:  cpu time      0.0451: real time      0.0455
    SETDIJ:  cpu time      0.0039: real time      0.0039
     EDDAV:  cpu time      1.7508: real time      1.7667
       DOS:  cpu time      0.0003: real time      0.0003
    --------------------------------------------
      LOOP:  cpu time      1.8001: real time      1.8165

 eigenvalue-minimisations  :  1376
 total energy-change (2. order) :-0.8163015E-04  (-0.3863619E-07)
 number of electron     133.0000042 magnetization       0.0000350
 augmentation part       84.2210696 magnetization       0.0004859

 Free energy of the ion-electron system (eV)
  ---------------------------------------------------
  alpha Z        PSCENC =       137.59429322
  Ewald energy   TEWEN  =    124003.21518635
  -Hartree energ DENC   =   -139407.75768058
  -exchange      EXHF   =         0.00000000
  -V(xc)+E(xc)   XCENC  =       537.22354324
  PAW double counting   =     15782.38932494   -17078.38686502
  entropy T*S    EENTRO =        -0.03344385
  eigenvalues    EBANDS =      -717.40474795
  atomic energy  EATOM  =     16704.21750749
  Solvation  Ecorr_sol  =         0.00000000
  ---------------------------------------------------
  free energy    TOTEN  =       -38.94288215 eV

  energy without entropy =      -38.90943831  energy(sigma->0) =      -38.92616023


--------------------------------------------------------------------------------------------------------




 average (electrostatic) potential at core
  the test charge radii are     0.9430  0.5201
  (the norm of the test charge is              1.0000)
       1 -73.4480       2 -73.4480       3 -73.4480       4 -73.4648       5 -73.7268
       6 -73.6665       7 -73.7268       8 -73.7268       9 -75.1958      10 -73.4447
      11 -73.4447      12 -73.4447      13 -49.2176
 
 
 
 E-fermi :  -2.4859     XC(G=0):  -2.8784     alpha+bet : -2.4952

 Fermi energy:        -2.4859143268

 spin component 1

 k-point     1 :       0.0000    0.0000    0.0000
  band No.  band energies     occupation 
      1     -11.2637      1.00000
      2     -10.2974      1.00000
      3      -9.1120      1.00000
      4      -7.6778      1.00000
      5      -7.3808      1.00000
      6      -7.3808      1.00000
      7      -7.1088      1.00000
      8      -7.1088      1.00000
      9      -7.1037      1.00000
     10      -6.9286      1.00000
     11      -6.8216      1.00000
     12      -6.8216      1.00000
     13      -6.6434      1.00000
     14      -6.6434      1.00000
     15      -6.5686      1.00000
     16      -6.4962      1.00000
     17      -6.3660      1.00000
     18      -6.3660      1.00000
     19      -5.8191      1.00000
     20      -5.6209      1.00000
     21      -5.6209      1.00000
     22      -5.4835      1.00000
     23      -5.4289      1.00000
     24      -5.4062      1.00000
     25      -5.4062      1.00000
     26      -5.3896      1.00000
     27      -5.3896      1.00000
     28      -5.2617      1.00000
     29      -5.2617      1.00000
     30      -5.2281      1.00000
     31      -5.1642      1.00000
     32      -5.1047      1.00000
     33      -5.1047      1.00000
     34      -4.9957      1.00000
     35      -4.9957      1.00000
     36      -4.8822      1.00000
     37      -4.8822      1.00000
     38      -4.6610      1.00000
     39      -4.5602      1.00000
     40      -4.5602      1.00000
     41      -4.5204      1.00000
     42      -4.5204      1.00000
     43      -4.4956      1.00000
     44      -4.4712      1.00000
     45      -4.3112      1.00000
     46      -4.3112      1.00000
     47      -4.1523      1.00000
     48      -4.1523      1.00000
     49      -4.1182      1.00000
     50      -4.1182      1.00000
     51      -4.1094      1.00000
     52      -4.1047      1.00000
     53      -4.0493      1.00000
     54      -4.0493      1.00000
     55      -4.0159      1.00000
     56      -4.0159      1.00000
     57      -4.0126      1.00000
     58      -3.9812      1.00000
     59      -3.9812      1.00000
     60      -3.7892      1.00000
     61      -3.7785      1.00000
     62      -3.7785      1.00000
     63      -3.7753      1.00000
     64      -2.9236      1.00000
     65      -2.4520      0.22143
     66      -2.4520      0.22138
     67      -2.4368      0.13935
     68      -1.3560      0.00000
     69      -1.3560      0.00000
     70      -1.2682      0.00000
     71      -0.9246      0.00000
     72      -0.8939      0.00000
     73      -0.8939      0.00000
     74       0.0111      0.00000
     75       1.7583      0.00000
     76       2.0210      0.00000
     77       2.0210      0.00000
     78       2.1037      0.00000
     79       2.2407      0.00000
     80       2.3024      0.00000
     81       2.6162      0.00000
     82       2.8240      0.00000
     83       3.1982      0.00000
     84       3.1982      0.00000
     85       3.5603      0.00000
     86       3.6988      0.00000
     87       3.7936      0.00000
     88       3.9779      0.00000
     89       3.9779      0.00000
     90       4.8359      0.00000
     91       4.9120      0.00000
     92       6.2037      0.00000
     93       6.4049      0.00000
     94       6.4224      0.00000
     95       6.5002      0.00000
     96       6.5002      0.00000

 k-point     2 :       0.2000    0.0000    0.0000
  band No.  band energies     occupation 
      1     -11.0231      1.00000
      2     -10.2072      1.00000
      3      -8.8374      1.00000
      4      -7.5544      1.00000
      5      -7.4292      1.00000
      6      -7.3443      1.00000
      7      -7.1470      1.00000
      8      -7.0481      1.00000
      9      -6.9829      1.00000
     10      -6.8520      1.00000
     11      -6.7855      1.00000
     12      -6.7366      1.00000
     13      -6.5864      1.00000
     14      -6.5395      1.00000
     15      -6.4903      1.00000
     16      -6.3923      1.00000
     17      -6.2948      1.00000
     18      -6.2728      1.00000
     19      -5.8131      1.00000
     20      -5.6527      1.00000
     21      -5.6095      1.00000
     22      -5.5542      1.00000
     23      -5.4942      1.00000
     24      -5.4344      1.00000
     25      -5.4122      1.00000
     26      -5.3987      1.00000
     27      -5.3577      1.00000
     28      -5.2913      1.00000
     29      -5.2745      1.00000
     30      -5.2428      1.00000
     31      -5.1994      1.00000
     32      -5.1929      1.00000
     33      -5.1123      1.00000
     34      -5.0776      1.00000
     35      -5.0225      1.00000
     36      -5.0123      1.00000
     37      -4.8856      1.00000
     38      -4.8611      1.00000
     39      -4.6821      1.00000
     40      -4.6662      1.00000
     41      -4.6264      1.00000
     42      -4.5724      1.00000
     43      -4.5608      1.00000
     44      -4.5032      1.00000
     45      -4.4815      1.00000
     46      -4.3982      1.00000
     47      -4.3823      1.00000
     48      -4.3255      1.00000
     49      -4.3017      1.00000
     50      -4.2164      1.00000
     51      -4.2151      1.00000
     52      -4.1851      1.00000
     53      -4.1707      1.00000
     54      -4.1446      1.00000
     55      -4.1379      1.00000
     56      -4.1010      1.00000
     57      -4.0598      1.00000
     58      -4.0249      1.00000
     59      -3.9945      1.00000
     60      -3.9770      1.00000
     61      -3.9164      1.00000
     62      -3.8991      1.00000
     63      -3.8411      1.00000
     64      -3.7166      1.00000
     65      -2.9110      1.00000
     66      -2.5178      0.76493
     67      -2.4763      0.41217
     68      -2.2307      0.00008
     69      -1.4783      0.00000
     70      -1.4380      0.00000
     71      -0.5748      0.00000
     72       0.0554      0.00000
     73       0.1046      0.00000
     74       1.0583      0.00000
     75       2.0300      0.00000
     76       2.3782      0.00000
     77       2.4199      0.00000
     78       2.5396      0.00000
     79       2.5471      0.00000
     80       2.8223      0.00000
     81       2.9236      0.00000
     82       3.1204      0.00000
     83       3.2204      0.00000
     84       3.4141      0.00000
     85       3.8663      0.00000
     86       4.0481      0.00000
     87       4.1945      0.00000
     88       4.5410      0.00000
     89       4.7108      0.00000
     90       5.1405      0.00000
     91       5.2046      0.00000
     92       6.1063      0.00000
     93       6.1583      0.00000
     94       6.4181      0.00000
     95       6.6329      0.00000
     96       6.7089      0.00000

 k-point     3 :       0.4000    0.0000    0.0000
  band No.  band energies     occupation 
      1     -10.6497      1.00000
      2      -9.6797      1.00000
      3      -8.4988      1.00000
      4      -8.0703      1.00000
      5      -7.2714      1.00000
      6      -7.2705      1.00000
      7      -6.9870      1.00000
      8      -6.8578      1.00000
      9      -6.7910      1.00000
     10      -6.7250      1.00000
     11      -6.5943      1.00000
     12      -6.5054      1.00000
     13      -6.4930      1.00000
     14      -6.3667      1.00000
     15      -6.2896      1.00000
     16      -6.1619      1.00000
     17      -6.1037      1.00000
     18      -6.0264      1.00000
     19      -5.8772      1.00000
     20      -5.8094      1.00000
     21      -5.8084      1.00000
     22      -5.7477      1.00000
     23      -5.6704      1.00000
     24      -5.6172      1.00000
     25      -5.5659      1.00000
     26      -5.5439      1.00000
     27      -5.4665      1.00000
     28      -5.3712      1.00000
     29      -5.3545      1.00000
     30      -5.2646      1.00000
     31      -5.2032      1.00000
     32      -5.1655      1.00000
     33      -5.1356      1.00000
     34      -5.1116      1.00000
     35      -5.0914      1.00000
     36      -5.0364      1.00000
     37      -5.0285      1.00000
     38      -4.9864      1.00000
     39      -4.9706      1.00000
     40      -4.9441      1.00000
     41      -4.9402      1.00000
     42      -4.8823      1.00000
     43      -4.7943      1.00000
     44      -4.7259      1.00000
     45      -4.7211      1.00000
     46      -4.6658      1.00000
     47      -4.6167      1.00000
     48      -4.5730      1.00000
     49      -4.4923      1.00000
     50      -4.4885      1.00000
     51      -4.4600      1.00000
     52      -4.4316      1.00000
     53      -4.3601      1.00000
     54      -4.2969      1.00000
     55      -4.2808      1.00000
     56      -4.2780      1.00000
     57      -4.2324      1.00000
     58      -4.1953      1.00000
     59      -4.0930      1.00000
     60      -4.0374      1.00000
     61      -4.0220      1.00000
     62      -4.0066      1.00000
     63      -3.9554      1.00000
     64      -3.9459      1.00000
     65      -3.0945      1.00000
     66      -2.5308      0.84042
     67      -2.4644      0.31088
     68      -2.0208      0.00000
     69      -1.4308      0.00000
     70      -1.3561      0.00000
     71      -0.7385      0.00000
     72       0.4833      0.00000
     73       1.0215      0.00000
     74       1.2543      0.00000
     75       2.8183      0.00000
     76       2.9663      0.00000
     77       3.3543      0.00000
     78       3.4082      0.00000
     79       3.4590      0.00000
     80       3.6670      0.00000
     81       3.8494      0.00000
     82       4.0214      0.00000
     83       4.1966      0.00000
     84       4.3902      0.00000
     85       4.7857      0.00000
     86       4.8842      0.00000
     87       4.9184      0.00000
     88       4.9848      0.00000
     89       5.0808      0.00000
     90       5.2876      0.00000
     91       5.3726      0.00000
     92       5.4951      0.00000
     93       5.9525      0.00000
     94       6.0543      0.00000
     95       6.0799      0.00000
     96       6.0856      0.00000

 k-point     4 :       0.4000    0.2000    0.0000
  band No.  band energies     occupation 
      1     -10.7154      1.00000
      2      -9.8963      1.00000
      3      -8.3068      1.00000
      4      -7.7853      1.00000
      5      -7.7416      1.00000
      6      -7.0822      1.00000
      7      -7.0667      1.00000
      8      -6.9918      1.00000
      9      -6.8975      1.00000
     10      -6.7850      1.00000
     11      -6.6390      1.00000
     12      -6.5014      1.00000
     13      -6.4645      1.00000
     14      -6.4245      1.00000
     15      -6.3439      1.00000
     16      -6.2206      1.00000
     17      -6.1537      1.00000
     18      -6.0834      1.00000
     19      -5.8241      1.00000
     20      -5.7916      1.00000
     21      -5.7370      1.00000
     22      -5.6939      1.00000
     23      -5.6107      1.00000
     24      -5.5785      1.00000
     25      -5.5536      1.00000
     26      -5.4672      1.00000
     27      -5.4321      1.00000
     28      -5.4124      1.00000
     29      -5.3142      1.00000
     30      -5.2661      1.00000
     31      -5.2256      1.00000
     32      -5.2183      1.00000
     33      -5.1725      1.00000
     34      -5.0973      1.00000
     35      -5.0753      1.00000
     36      -5.0411      1.00000
     37      -4.9874      1.00000
     38      -4.9353      1.00000
     39      -4.8880      1.00000
     40      -4.8401      1.00000
     41      -4.8052      1.00000
     42      -4.7871      1.00000
     43      -4.7484      1.00000
     44      -4.7255      1.00000
     45      -4.6945      1.00000
     46      -4.6698      1.00000
     47      -4.5643      1.00000
     48      -4.5119      1.00000
     49      -4.4768      1.00000
     50      -4.4573      1.00000
     51      -4.3892      1.00000
     52      -4.3682      1.00000
     53      -4.2871      1.00000
     54      -4.2602      1.00000
     55      -4.1912      1.00000
     56      -4.1621      1.00000
     57      -4.1332      1.00000
     58      -4.1077      1.00000
     59      -4.0765      1.00000
     60      -4.0740      1.00000
     61      -4.0332      1.00000
     62      -4.0184      1.00000
     63      -3.7624      1.00000
     64      -3.7495      1.00000
     65      -3.4968      1.00000
     66      -3.1276      1.00000
     67      -3.0215      1.00000
     68      -1.5784      0.00000
     69      -0.7918      0.00000
     70      -0.7011      0.00000
     71      -0.5979      0.00000
     72      -0.0743      0.00000
     73       0.6242      0.00000
     74       1.5314      0.00000
     75       2.5077      0.00000
     76       2.5777      0.00000
     77       2.6275      0.00000
     78       3.0325      0.00000
     79       3.1543      0.00000
     80       3.4545      0.00000
     81       3.5583      0.00000
     82       3.7209      0.00000
     83       4.3237      0.00000
     84       4.4789      0.00000
     85       4.5208      0.00000
     86       4.5629      0.00000
     87       4.6450      0.00000
     88       5.3072      0.00000
     89       5.3969      0.00000
     90       5.6725      0.00000
     91       5.7553      0.00000
     92       5.8092      0.00000
     93       6.0728      0.00000
     94       6.1579      0.00000
     95       6.1926      0.00000
     96       6.2023      0.00000

 k-point     5 :      -0.4000    0.2000    0.0000
  band No.  band energies     occupation 
      1     -10.5862      1.00000
      2      -8.9988      1.00000
      3      -8.8787      1.00000
      4      -7.8450      1.00000
      5      -7.5028      1.00000
      6      -7.3975      1.00000
      7      -7.0094      1.00000
      8      -6.9151      1.00000
      9      -6.7818      1.00000
     10      -6.5104      1.00000
     11      -6.4297      1.00000
     12      -6.4062      1.00000
     13      -6.2800      1.00000
     14      -6.2529      1.00000
     15      -6.1536      1.00000
     16      -6.1003      1.00000
     17      -6.0852      1.00000
     18      -6.0157      1.00000
     19      -5.9199      1.00000
     20      -5.9086      1.00000
     21      -5.8847      1.00000
     22      -5.8370      1.00000
     23      -5.8240      1.00000
     24      -5.7418      1.00000
     25      -5.6060      1.00000
     26      -5.5385      1.00000
     27      -5.5252      1.00000
     28      -5.4584      1.00000
     29      -5.4414      1.00000
     30      -5.3942      1.00000
     31      -5.3738      1.00000
     32      -5.3167      1.00000
     33      -5.2613      1.00000
     34      -5.2128      1.00000
     35      -5.1611      1.00000
     36      -5.1156      1.00000
     37      -5.0716      1.00000
     38      -5.0621      1.00000
     39      -5.0352      1.00000
     40      -4.9711      1.00000
     41      -4.9218      1.00000
     42      -4.8232      1.00000
     43      -4.7605      1.00000
     44      -4.7262      1.00000
     45      -4.6914      1.00000
     46      -4.6079      1.00000
     47      -4.6007      1.00000
     48      -4.5765      1.00000
     49      -4.5529      1.00000
     50      -4.4837      1.00000
     51      -4.4342      1.00000
     52      -4.3964      1.00000
     53      -4.3360      1.00000
     54      -4.3224      1.00000
     55      -4.2489      1.00000
     56      -4.2419      1.00000
     57      -4.2230      1.00000
     58      -4.1531      1.00000
     59      -4.1199      1.00000
     60      -4.1009      1.00000
     61      -4.0760      1.00000
     62      -4.0420      1.00000
     63      -4.0216      1.00000
     64      -3.9716      1.00000
     65      -3.6909      1.00000
     66      -3.2506      1.00000
     67      -2.6109      0.99033
     68      -2.0124      0.00000
     69      -1.0194      0.00000
     70      -0.4260      0.00000
     71       0.1384      0.00000
     72       0.6719      0.00000
     73       0.9520      0.00000
     74       2.0358      0.00000
     75       2.3102      0.00000
     76       2.4807      0.00000
     77       3.4540      0.00000
     78       3.6455      0.00000
     79       3.7122      0.00000
     80       4.0188      0.00000
     81       4.2469      0.00000
     82       4.2964      0.00000
     83       4.3703      0.00000
     84       4.3780      0.00000
     85       4.4590      0.00000
     86       4.7605      0.00000
     87       4.7837      0.00000
     88       4.9124      0.00000
     89       4.9184      0.00000
     90       5.0281      0.00000
     91       5.6413      0.00000
     92       5.7100      0.00000
     93       5.7234      0.00000
     94       5.8084      0.00000
     95       5.8169      0.00000
     96       5.9008      0.00000
 Fermi energy:        -2.4859143268

 spin component 2

 k-point     1 :       0.0000    0.0000    0.0000
  band No.  band energies     occupation 
      1     -11.2638      1.00000
      2     -10.2974      1.00000
      3      -9.1121      1.00000
      4      -7.6778      1.00000
      5      -7.3809      1.00000
      6      -7.3809      1.00000
      7      -7.1089      1.00000
      8      -7.1089      1.00000
      9      -7.1037      1.00000
     10      -6.9286      1.00000
     11      -6.8217      1.00000
     12      -6.8217      1.00000
     13      -6.6435      1.00000
     14      -6.6435      1.00000
     15      -6.5687      1.00000
     16      -6.4962      1.00000
     17      -6.3660      1.00000
     18      -6.3660      1.00000
     19      -5.8192      1.00000
     20      -5.6209      1.00000
     21      -5.6209      1.00000
     22      -5.4836      1.00000
     23      -5.4290      1.00000
     24      -5.4062      1.00000
     25      -5.4062      1.00000
     26      -5.3897      1.00000
     27      -5.3897      1.00000
     28      -5.2617      1.00000
     29      -5.2617      1.00000
     30      -5.2282      1.00000
     31      -5.1643      1.00000
     32      -5.1048      1.00000
     33      -5.1048      1.00000
     34      -4.9957      1.00000
     35      -4.9957      1.00000
     36      -4.8822      1.00000
     37      -4.8822      1.00000
     38      -4.6611      1.00000
     39      -4.5602      1.00000
     40      -4.5602      1.00000
     41      -4.5205      1.00000
     42      -4.5205      1.00000
     43      -4.4956      1.00000
     44      -4.4712      1.00000
     45      -4.3112      1.00000
     46      -4.3112      1.00000
     47      -4.1523      1.00000
     48      -4.1523      1.00000
     49      -4.1183      1.00000
     50      -4.1183      1.00000
     51      -4.1095      1.00000
     52      -4.1048      1.00000
     53      -4.0493      1.00000
     54      -4.0493      1.00000
     55      -4.0159      1.00000
     56      -4.0159      1.00000
     57      -4.0126      1.00000
     58      -3.9812      1.00000
     59      -3.9812      1.00000
     60      -3.7893      1.00000
     61      -3.7786      1.00000
     62      -3.7786      1.00000
     63      -3.7753      1.00000
     64      -2.9237      1.00000
     65      -2.4520      0.22190
     66      -2.4520      0.22186
     67      -2.4368      0.13968
     68      -1.3560      0.00000
     69      -1.3560      0.00000
     70      -1.2682      0.00000
     71      -0.9247      0.00000
     72      -0.8940      0.00000
     73      -0.8940      0.00000
     74       0.0112      0.00000
     75       1.7656      0.00000
     76       2.0209      0.00000
     77       2.0209      0.00000
     78       2.1461      0.00000
     79       2.3059      0.00000
     80       2.5142      0.00000
     81       2.8380      0.00000
     82       3.0160      0.00000
     83       3.1981      0.00000
     84       3.1981      0.00000
     85       3.7022      0.00000
     86       3.7430      0.00000
     87       3.9331      0.00000
     88       3.9778      0.00000
     89       3.9778      0.00000
     90       4.9990      0.00000
     91       5.0608      0.00000
     92       6.2323      0.00000
     93       6.5002      0.00000
     94       6.5002      0.00000
     95       6.5324      0.00000
     96       6.5714      0.00000

 k-point     2 :       0.2000    0.0000    0.0000
  band No.  band energies     occupation 
      1     -11.0231      1.00000
      2     -10.2072      1.00000
      3      -8.8375      1.00000
      4      -7.5544      1.00000
      5      -7.4293      1.00000
      6      -7.3443      1.00000
      7      -7.1471      1.00000
      8      -7.0481      1.00000
      9      -6.9829      1.00000
     10      -6.8521      1.00000
     11      -6.7855      1.00000
     12      -6.7366      1.00000
     13      -6.5865      1.00000
     14      -6.5395      1.00000
     15      -6.4903      1.00000
     16      -6.3924      1.00000
     17      -6.2948      1.00000
     18      -6.2728      1.00000
     19      -5.8131      1.00000
     20      -5.6527      1.00000
     21      -5.6095      1.00000
     22      -5.5542      1.00000
     23      -5.4942      1.00000
     24      -5.4344      1.00000
     25      -5.4122      1.00000
     26      -5.3987      1.00000
     27      -5.3577      1.00000
     28      -5.2913      1.00000
     29      -5.2745      1.00000
     30      -5.2429      1.00000
     31      -5.1994      1.00000
     32      -5.1929      1.00000
     33      -5.1123      1.00000
     34      -5.0777      1.00000
     35      -5.0225      1.00000
     36      -5.0123      1.00000
     37      -4.8856      1.00000
     38      -4.8611      1.00000
     39      -4.6821      1.00000
     40      -4.6662      1.00000
     41      -4.6264      1.00000
     42      -4.5724      1.00000
     43      -4.5608      1.00000
     44      -4.5032      1.00000
     45      -4.4815      1.00000
     46      -4.3982      1.00000
     47      -4.3824      1.00000
     48      -4.3255      1.00000
     49      -4.3017      1.00000
     50      -4.2165      1.00000
     51      -4.2151      1.00000
     52      -4.1851      1.00000
     53      -4.1707      1.00000
     54      -4.1446      1.00000
     55      -4.1379      1.00000
     56      -4.1010      1.00000
     57      -4.0598      1.00000
     58      -4.0250      1.00000
     59      -3.9945      1.00000
     60      -3.9770      1.00000
     61      -3.9164      1.00000
     62      -3.8991      1.00000
     63      -3.8412      1.00000
     64      -3.7166      1.00000
     65      -2.9111      1.00000
     66      -2.5178      0.76529
     67      -2.4764      0.41267
     68      -2.2308      0.00008
     69      -1.4784      0.00000
     70      -1.4380      0.00000
     71      -0.5748      0.00000
     72       0.0553      0.00000
     73       0.1045      0.00000
     74       1.0583      0.00000
     75       2.0370      0.00000
     76       2.3782      0.00000
     77       2.4623      0.00000
     78       2.5433      0.00000
     79       2.8130      0.00000
     80       2.8285      0.00000
     81       3.1448      0.00000
     82       3.2204      0.00000
     83       3.3095      0.00000
     84       3.4155      0.00000
     85       4.0426      0.00000
     86       4.1415      0.00000
     87       4.2515      0.00000
     88       4.5414      0.00000
     89       4.7107      0.00000
     90       5.3032      0.00000
     91       5.3542      0.00000
     92       6.1063      0.00000
     93       6.1588      0.00000
     94       6.4219      0.00000
     95       6.7596      0.00000
     96       6.8697      0.00000

 k-point     3 :       0.4000    0.0000    0.0000
  band No.  band energies     occupation 
      1     -10.6497      1.00000
      2      -9.6798      1.00000
      3      -8.4989      1.00000
      4      -8.0704      1.00000
      5      -7.2714      1.00000
      6      -7.2705      1.00000
      7      -6.9870      1.00000
      8      -6.8578      1.00000
      9      -6.7910      1.00000
     10      -6.7251      1.00000
     11      -6.5943      1.00000
     12      -6.5054      1.00000
     13      -6.4930      1.00000
     14      -6.3668      1.00000
     15      -6.2896      1.00000
     16      -6.1619      1.00000
     17      -6.1038      1.00000
     18      -6.0264      1.00000
     19      -5.8772      1.00000
     20      -5.8094      1.00000
     21      -5.8084      1.00000
     22      -5.7477      1.00000
     23      -5.6704      1.00000
     24      -5.6172      1.00000
     25      -5.5659      1.00000
     26      -5.5439      1.00000
     27      -5.4665      1.00000
     28      -5.3712      1.00000
     29      -5.3545      1.00000
     30      -5.2646      1.00000
     31      -5.2032      1.00000
     32      -5.1655      1.00000
     33      -5.1356      1.00000
     34      -5.1116      1.00000
     35      -5.0915      1.00000
     36      -5.0364      1.00000
     37      -5.0285      1.00000
     38      -4.9864      1.00000
     39      -4.9706      1.00000
     40      -4.9442      1.00000
     41      -4.9403      1.00000
     42      -4.8823      1.00000
     43      -4.7943      1.00000
     44      -4.7259      1.00000
     45      -4.7211      1.00000
     46      -4.6659      1.00000
     47      -4.6167      1.00000
     48      -4.5730      1.00000
     49      -4.4923      1.00000
     50      -4.4886      1.00000
     51      -4.4601      1.00000
     52      -4.4316      1.00000
     53      -4.3602      1.00000
     54      -4.2969      1.00000
     55      -4.2808      1.00000
     56      -4.2780      1.00000
     57      -4.2324      1.00000
     58      -4.1953      1.00000
     59      -4.0930      1.00000
     60      -4.0374      1.00000
     61      -4.0220      1.00000
     62      -4.0066      1.00000
     63      -3.9555      1.00000
     64      -3.9459      1.00000
     65      -3.0945      1.00000
     66      -2.5308      0.84063
     67      -2.4645      0.31125
     68      -2.0208      0.00000
     69      -1.4309      0.00000
     70      -1.3561      0.00000
     71      -0.7386      0.00000
     72       0.4832      0.00000
     73       1.0214      0.00000
     74       1.2543      0.00000
     75       2.8186      0.00000
     76       2.9741      0.00000
     77       3.3946      0.00000
     78       3.4081      0.00000
     79       3.6593      0.00000
     80       3.7438      0.00000
     81       4.0672      0.00000
     82       4.1947      0.00000
     83       4.2125      0.00000
     84       4.3902      0.00000
     85       4.9141      0.00000
     86       4.9723      0.00000
     87       5.0307      0.00000
     88       5.1168      0.00000
     89       5.2543      0.00000
     90       5.2875      0.00000
     91       5.5881      0.00000
     92       5.6657      0.00000
     93       5.9705      0.00000
     94       6.0856      0.00000
     95       6.2086      0.00000
     96       6.2183      0.00000

 k-point     4 :       0.4000    0.2000    0.0000
  band No.  band energies     occupation 
      1     -10.7154      1.00000
      2      -9.8964      1.00000
      3      -8.3069      1.00000
      4      -7.7854      1.00000
      5      -7.7416      1.00000
      6      -7.0822      1.00000
      7      -7.0667      1.00000
      8      -6.9918      1.00000
      9      -6.8975      1.00000
     10      -6.7850      1.00000
     11      -6.6390      1.00000
     12      -6.5015      1.00000
     13      -6.4646      1.00000
     14      -6.4245      1.00000
     15      -6.3439      1.00000
     16      -6.2207      1.00000
     17      -6.1537      1.00000
     18      -6.0835      1.00000
     19      -5.8241      1.00000
     20      -5.7916      1.00000
     21      -5.7370      1.00000
     22      -5.6939      1.00000
     23      -5.6107      1.00000
     24      -5.5785      1.00000
     25      -5.5536      1.00000
     26      -5.4672      1.00000
     27      -5.4321      1.00000
     28      -5.4124      1.00000
     29      -5.3143      1.00000
     30      -5.2661      1.00000
     31      -5.2257      1.00000
     32      -5.2183      1.00000
     33      -5.1726      1.00000
     34      -5.0973      1.00000
     35      -5.0754      1.00000
     36      -5.0411      1.00000
     37      -4.9874      1.00000
     38      -4.9353      1.00000
     39      -4.8880      1.00000
     40      -4.8401      1.00000
     41      -4.8052      1.00000
     42      -4.7871      1.00000
     43      -4.7484      1.00000
     44      -4.7256      1.00000
     45      -4.6946      1.00000
     46      -4.6698      1.00000
     47      -4.5643      1.00000
     48      -4.5119      1.00000
     49      -4.4768      1.00000
     50      -4.4573      1.00000
     51      -4.3892      1.00000
     52      -4.3682      1.00000
     53      -4.2871      1.00000
     54      -4.2602      1.00000
     55      -4.1912      1.00000
     56      -4.1621      1.00000
     57      -4.1333      1.00000
     58      -4.1077      1.00000
     59      -4.0765      1.00000
     60      -4.0741      1.00000
     61      -4.0332      1.00000
     62      -4.0184      1.00000
     63      -3.7624      1.00000
     64      -3.7496      1.00000
     65      -3.4968      1.00000
     66      -3.1276      1.00000
     67      -3.0216      1.00000
     68      -1.5785      0.00000
     69      -0.7918      0.00000
     70      -0.7012      0.00000
     71      -0.5980      0.00000
     72      -0.0744      0.00000
     73       0.6241      0.00000
     74       1.5314      0.00000
     75       2.5079      0.00000
     76       2.5834      0.00000
     77       2.6275      0.00000
     78       3.0751      0.00000
     79       3.4150      0.00000
     80       3.4853      0.00000
     81       3.7649      0.00000
     82       3.9052      0.00000
     83       4.3261      0.00000
     84       4.5209      0.00000
     85       4.5580      0.00000
     86       4.6631      0.00000
     87       4.7888      0.00000
     88       5.3096      0.00000
     89       5.3992      0.00000
     90       5.7021      0.00000
     91       5.9127      0.00000
     92       5.9317      0.00000
     93       6.1270      0.00000
     94       6.1966      0.00000
     95       6.2832      0.00000
     96       6.4418      0.00000

 k-point     5 :      -0.4000    0.2000    0.0000
  band No.  band energies     occupation 
      1     -10.5862      1.00000
      2      -8.9988      1.00000
      3      -8.8787      1.00000
      4      -7.8451      1.00000
      5      -7.5028      1.00000
      6      -7.3976      1.00000
      7      -7.0095      1.00000
      8      -6.9151      1.00000
      9      -6.7819      1.00000
     10      -6.5105      1.00000
     11      -6.4297      1.00000
     12      -6.4063      1.00000
     13      -6.2800      1.00000
     14      -6.2529      1.00000
     15      -6.1536      1.00000
     16      -6.1003      1.00000
     17      -6.0852      1.00000
     18      -6.0158      1.00000
     19      -5.9199      1.00000
     20      -5.9087      1.00000
     21      -5.8847      1.00000
     22      -5.8370      1.00000
     23      -5.8240      1.00000
     24      -5.7418      1.00000
     25      -5.6060      1.00000
     26      -5.5385      1.00000
     27      -5.5253      1.00000
     28      -5.4584      1.00000
     29      -5.4414      1.00000
     30      -5.3942      1.00000
     31      -5.3738      1.00000
     32      -5.3167      1.00000
     33      -5.2614      1.00000
     34      -5.2128      1.00000
     35      -5.1611      1.00000
     36      -5.1157      1.00000
     37      -5.0716      1.00000
     38      -5.0622      1.00000
     39      -5.0352      1.00000
     40      -4.9711      1.00000
     41      -4.9218      1.00000
     42      -4.8232      1.00000
     43      -4.7605      1.00000
     44      -4.7262      1.00000
     45      -4.6914      1.00000
     46      -4.6079      1.00000
     47      -4.6007      1.00000
     48      -4.5765      1.00000
     49      -4.5529      1.00000
     50      -4.4837      1.00000
     51      -4.4343      1.00000
     52      -4.3964      1.00000
     53      -4.3360      1.00000
     54      -4.3224      1.00000
     55      -4.2489      1.00000
     56      -4.2419      1.00000
     57      -4.2231      1.00000
     58      -4.1532      1.00000
     59      -4.1199      1.00000
     60      -4.1009      1.00000
     61      -4.0760      1.00000
     62      -4.0420      1.00000
     63      -4.0217      1.00000
     64      -3.9716      1.00000
     65      -3.6910      1.00000
     66      -3.2507      1.00000
     67      -2.6109      0.99034
     68      -2.0124      0.00000
     69      -1.0195      0.00000
     70      -0.4261      0.00000
     71       0.1383      0.00000
     72       0.6719      0.00000
     73       0.9520      0.00000
     74       2.0357      0.00000
     75       2.3101      0.00000
     76       2.4806      0.00000
     77       3.4522      0.00000
     78       3.6524      0.00000
     79       3.7150      0.00000
     80       4.0231      0.00000
     81       4.2755      0.00000
     82       4.3495      0.00000
     83       4.4527      0.00000
     84       4.6480      0.00000
     85       4.6559      0.00000
     86       4.9774      0.00000
     87       4.9990      0.00000
     88       5.0261      0.00000
     89       5.0949      0.00000
     90       5.1028      0.00000
     91       5.7126      0.00000
     92       5.8517      0.00000
     93       5.8908      0.00000
     94       5.8996      0.00000
     95       5.9695      0.00000
     96       6.0141      0.00000


--------------------------------------------------------------------------------------------------------


 soft charge-density along one line, spin component           1
         0         1         2         3         4         5         6         7         8         9
 total charge-density along one line
 
 soft charge-density along one line, spin component           2
         0         1         2         3         4         5         6         7         8         9
 total charge-density along one line
 
 pseudopotential strength for first ion, spin component:           1
-10.004  -0.003  -0.003  -0.005   0.001   0.646   0.002   0.002
 -0.003  -9.969  -0.002   0.004  -0.002   0.002   0.617   0.002
 -0.003  -0.002  -9.961  -0.004  -0.002   0.002   0.002   0.610
 -0.005   0.004  -0.004  -9.964  -0.003   0.004  -0.003   0.003
  0.001  -0.002  -0.002  -0.003 -10.005  -0.001   0.001   0.001
  0.646   0.002   0.002   0.004  -0.001   6.535  -0.002  -0.001
  0.002   0.617   0.002  -0.003   0.001  -0.002   6.555  -0.001
  0.002   0.002   0.610   0.003   0.001  -0.001  -0.001   6.560
  0.004  -0.003   0.003   0.613   0.002  -0.003   0.002  -0.002
 -0.001   0.001   0.001   0.002   0.646   0.000  -0.001  -0.001
 -0.000   0.001  -0.008   0.001  -0.000   0.000  -0.000   0.002
 -0.001   0.001  -0.014   0.002  -0.000   0.001  -0.001   0.004
  0.003  -0.008  -0.001   0.000  -0.001  -0.002   0.009   0.001
  0.000   0.002  -0.008   0.003   0.000  -0.000  -0.001   0.008
  0.002   0.000  -0.001  -0.008   0.003  -0.001  -0.000   0.001
  0.003  -0.010  -0.001   0.000  -0.002  -0.002   0.012   0.001
  0.000   0.002  -0.009   0.003   0.000  -0.000  -0.001   0.010
  0.002   0.000  -0.002  -0.009   0.003  -0.001  -0.000   0.001
 pseudopotential strength for first ion, spin component:           2
-10.004  -0.003  -0.003  -0.005   0.001   0.646   0.002   0.002
 -0.003  -9.969  -0.002   0.004  -0.002   0.002   0.617   0.002
 -0.003  -0.002  -9.961  -0.004  -0.002   0.002   0.002   0.610
 -0.005   0.004  -0.004  -9.964  -0.003   0.004  -0.003   0.003
  0.001  -0.002  -0.002  -0.003 -10.005  -0.001   0.001   0.001
  0.646   0.002   0.002   0.004  -0.001   6.535  -0.002  -0.001
  0.002   0.617   0.002  -0.003   0.001  -0.002   6.555  -0.001
  0.002   0.002   0.610   0.003   0.001  -0.001  -0.001   6.560
  0.004  -0.003   0.003   0.613   0.002  -0.003   0.002  -0.002
 -0.001   0.001   0.001   0.002   0.646   0.000  -0.001  -0.001
 -0.000   0.001  -0.008   0.001  -0.000   0.000  -0.000   0.002
 -0.001   0.001  -0.014   0.002  -0.000   0.001  -0.001   0.004
  0.003  -0.008  -0.001   0.000  -0.001  -0.002   0.009   0.001
  0.000   0.002  -0.008   0.003   0.000  -0.000  -0.001   0.008
  0.002   0.000  -0.001  -0.008   0.003  -0.001  -0.000   0.001
  0.003  -0.010  -0.001   0.000  -0.002  -0.002   0.012   0.001
  0.000   0.002  -0.009   0.003   0.000  -0.000  -0.001   0.010
  0.002   0.000  -0.002  -0.009   0.003  -0.001  -0.000   0.001
 total augmentation occupancy for first ion, spin component:           1
  1.908  -0.001   0.001  -0.005   0.002  -0.016   0.000  -0.000   0.005  -0.000  -0.005  -0.001  -0.001   0.000   0.006   0.001
 -0.001   1.923  -0.003   0.002  -0.003   0.000  -0.032   0.001  -0.001   0.004  -0.006  -0.000   0.006   0.002   0.002  -0.008
  0.001  -0.003   1.925  -0.005   0.001  -0.000   0.001  -0.028   0.001  -0.000   0.005   0.014  -0.001   0.049  -0.001  -0.000
 -0.005   0.002  -0.005   1.926  -0.001   0.005  -0.001   0.001  -0.033   0.000  -0.011  -0.000   0.002   0.004   0.008   0.000
  0.002  -0.003   0.001  -0.001   1.906  -0.000   0.004  -0.000   0.000  -0.016  -0.003  -0.001   0.007   0.000  -0.001  -0.001
 -0.016   0.000  -0.000   0.005  -0.000   0.014  -0.000   0.000   0.000   0.000   0.001   0.000   0.000  -0.000   0.003  -0.000
  0.000  -0.032   0.001  -0.001   0.004  -0.000   0.010  -0.000   0.000   0.000   0.002   0.000   0.017  -0.001  -0.001  -0.001
 -0.000   0.001  -0.028   0.001  -0.000   0.000  -0.000   0.013  -0.000   0.000  -0.045   0.002   0.000   0.023   0.001   0.000
  0.005  -0.001   0.001  -0.033   0.000   0.000   0.000  -0.000   0.010  -0.000   0.003   0.000  -0.001  -0.001   0.017   0.000
 -0.000   0.004  -0.000   0.000  -0.016   0.000   0.000   0.000  -0.000   0.014   0.000   0.000   0.002  -0.000   0.000  -0.000
 -0.005  -0.006   0.005  -0.011  -0.003   0.001   0.002  -0.045   0.003   0.000   1.711  -0.135  -0.002   0.125  -0.004   0.000
 -0.001  -0.000   0.014  -0.000  -0.001   0.000   0.000   0.002   0.000   0.000  -0.135   0.017  -0.000  -0.023  -0.001  -0.000
 -0.001   0.006  -0.001   0.002   0.007   0.000   0.017   0.000  -0.001   0.002  -0.002  -0.000   0.209   0.003   0.002  -0.013
  0.000   0.002   0.049   0.004   0.000  -0.000  -0.001   0.023  -0.001  -0.000   0.125  -0.023   0.003   0.123   0.005  -0.000
  0.006   0.002  -0.001   0.008  -0.001   0.003  -0.001   0.001   0.017   0.000  -0.004  -0.001   0.002   0.005   0.212  -0.000
  0.001  -0.008  -0.000   0.000  -0.001  -0.000  -0.001   0.000   0.000  -0.000   0.000  -0.000  -0.013  -0.000  -0.000   0.001
  0.000   0.001  -0.012   0.001   0.000   0.000  -0.000  -0.001  -0.000   0.000  -0.018   0.002  -0.000  -0.008  -0.000  -0.000
  0.000   0.000  -0.001  -0.008   0.001  -0.000   0.000   0.000  -0.001  -0.000   0.000  -0.000  -0.000  -0.000  -0.013  -0.000
 total augmentation occupancy for first ion, spin component:           2
 -0.000  -0.000   0.000   0.000   0.000   0.000   0.000  -0.000  -0.000  -0.000  -0.000   0.000  -0.000  -0.000  -0.000   0.000
 -0.000  -0.000   0.000   0.000   0.000   0.000  -0.000  -0.000  -0.000  -0.000   0.000  -0.000   0.000  -0.000  -0.000  -0.000
  0.000   0.000  -0.000   0.000   0.000  -0.000  -0.000   0.000  -0.000  -0.000   0.000   0.000   0.000   0.000   0.000  -0.000
  0.000   0.000   0.000  -0.000  -0.000  -0.000  -0.000  -0.000  -0.000   0.000   0.000  -0.000  -0.000  -0.000   0.000   0.000
  0.000   0.000   0.000  -0.000  -0.000  -0.000  -0.000  -0.000   0.000   0.000  -0.000   0.000  -0.000  -0.000  -0.000  -0.000
  0.000   0.000  -0.000  -0.000  -0.000  -0.000  -0.000   0.000   0.000   0.000   0.000   0.000  -0.000   0.000   0.000  -0.000
  0.000  -0.000  -0.000  -0.000  -0.000  -0.000  -0.000  -0.000   0.000   0.000   0.000   0.000  -0.000   0.000   0.000  -0.000
 -0.000  -0.000   0.000  -0.000  -0.000   0.000  -0.000  -0.000  -0.000   0.000  -0.000  -0.000   0.000  -0.000   0.000  -0.000
 -0.000  -0.000  -0.000  -0.000   0.000   0.000   0.000  -0.000  -0.000  -0.000   0.000   0.000   0.000   0.000  -0.000   0.000
 -0.000  -0.000  -0.000   0.000   0.000   0.000   0.000   0.000  -0.000  -0.000   0.000   0.000   0.000   0.000  -0.000  -0.000
 -0.000   0.000   0.000   0.000  -0.000   0.000   0.000  -0.000   0.000   0.000  -0.000   0.000  -0.000  -0.000  -0.000   0.000
  0.000  -0.000   0.000  -0.000   0.000   0.000   0.000  -0.000   0.000   0.000   0.000  -0.000   0.000   0.000   0.000  -0.000
 -0.000   0.000   0.000  -0.000  -0.000  -0.000  -0.000   0.000   0.000   0.000  -0.000   0.000  -0.000   0.000   0.000   0.000
 -0.000  -0.000   0.000  -0.000  -0.000   0.000   0.000  -0.000   0.000   0.000  -0.000   0.000   0.000  -0.000   0.000   0.000
 -0.000  -0.000   0.000   0.000  -0.000   0.000   0.000   0.000  -0.000  -0.000  -0.000   0.000   0.000   0.000  -0.000   0.000
  0.000  -0.000  -0.000   0.000  -0.000  -0.000  -0.000  -0.000   0.000  -0.000   0.000  -0.000   0.000   0.000   0.000   0.000
  0.000   0.000  -0.000   0.000   0.000   0.000  -0.000  -0.000  -0.000   0.000   0.000  -0.000   0.000  -0.000   0.000  -0.000
  0.000   0.000  -0.000  -0.000   0.000  -0.000   0.000  -0.000  -0.000  -0.000   0.000  -0.000   0.000   0.000   0.000  -0.000


------------------------ aborting loop because EDIFF is reached ----------------------------------------


    CHARGE:  cpu time      0.1083: real time      0.1088
    FORLOC:  cpu time      0.0020: real time      0.0020
    FORNL :  cpu time      0.2308: real time      0.2329
    STRESS:  cpu time      1.5062: real time      1.5189
    FORCOR:  cpu time      0.0384: real time      0.0385
    FORHAR:  cpu time      0.0046: real time      0.0046
    MIXING:  cpu time      0.0045: real time      0.0045
    OFIELD:  cpu time      0.0000: real time      0.0000

 ---------------------------------------------------------------------------------------------

         DFTD3 V3.0 Rev 1        
 IVDW         = 12
 DF pbe       
 parameters
 VDW_S6       =    1.0000
 VDW_S8       =    0.7875
 VDW_A1       =    0.4289
 VDW_A2       =    4.4407
 k1-k3        =   16.0000    1.3333   -4.0000
 VDW_RADIUS   =   50.2022 A
 VDW_CNRADIUS =   21.1671 A
 Edisp (eV)   -4.68080

 E6    (eV) :    -2.5883
 E8    (eV) :    -2.0925
 % E8        : 44.70
    FORVDW:  cpu time      0.0095: real time      0.0095

  FORCE on cell =-STRESS in cart. coord.  units (eV):
  Direction    XX          YY          ZZ          XY          YZ          ZX
  --------------------------------------------------------------------------------------
  Alpha Z   137.59429   137.59429   137.59429
  Ewald  132716.00987132716.00987************    -0.00000    -0.00000    -0.00000
  Hartree136630.88398136630.88398************     0.00000    -0.00000    -0.00000
  E(xc)    -773.83227  -773.83213  -775.92820    -0.00012     0.00000     0.00000
  Local  ************************273978.18098     0.00203    -0.00000    -0.00000
  n-local  -251.60286  -264.80067  -250.87397    -7.68096    -0.02644    -0.02812
  augment  1137.80795  1137.81005  1129.28761    -0.00182     0.00002     0.00004
  Kinetic  1085.45109  1086.72241  1094.14550     0.98701    -0.89357     1.10534
  Fock        0.00000     0.00000     0.00000     0.00000     0.00000     0.00000
  vdW        -4.94207    -4.94207    -2.45743     0.00000    -0.00000    -0.00000
  -------------------------------------------------------------------------------------
  Total      -7.42078    -7.42078    27.10244     0.00000     0.00000    -0.00000
  in kB     -15.37036   -15.37036    56.13618     0.00000     0.00000    -0.00000
  external pressure =        8.47 kB  Pullay stress =        0.00 kB


 VOLUME and BASIS-vectors are now :
 -----------------------------------------------------------------------------
  energy-cutoff  :      600.00
  volume of cell :      773.53
      direct lattice vectors                 reciprocal lattice vectors
     5.112382028  0.000000000  0.000000000     0.195603536 -0.112931754  0.000000000
     2.556191014  4.427452710  0.000000000     0.000000000  0.225863508  0.000000000
     0.000000000  0.000000000 34.174242446     0.000000000  0.000000000  0.029261804

  length of vectors
     5.112382028  5.112382028 34.174242446     0.225863508  0.225863508  0.029261804


 FORCES acting on ions
    electron-ion (+dipol)            ewald-force                    non-local-force                 convergence-correction
 -----------------------------------------------------------------------------------------------
   -.470E+00 -.272E+00 0.318E+04   0.906E-01 0.523E-01 -.318E+04   0.303E+00 0.175E+00 -.156E+01   0.446E-04 0.258E-04 0.926E-03
   0.470E+00 -.272E+00 0.318E+04   -.906E-01 0.523E-01 -.318E+04   -.303E+00 0.175E+00 -.156E+01   -.446E-04 0.258E-04 0.926E-03
   0.275E-05 0.543E+00 0.318E+04   -.417E-08 -.105E+00 -.318E+04   -.461E-18 -.350E+00 -.156E+01   0.462E-10 -.515E-04 0.926E-03
   0.256E-05 0.148E-05 0.318E+04   0.502E-08 0.461E-08 -.318E+04   -.110E-16 -.237E-17 -.343E+01   -.142E-10 -.826E-11 0.144E-02
   -.268E-05 -.305E+01 0.372E+02   -.579E-08 0.202E+01 -.366E+02   -.109E-16 0.106E+01 -.692E+00   0.126E-08 -.240E-03 0.191E-02
   -.232E-05 -.133E-05 0.348E+02   0.457E-08 -.819E-08 -.345E+02   0.176E-17 -.582E-19 -.280E+00   -.148E-10 -.905E-11 0.135E-02
   0.264E+01 0.152E+01 0.372E+02   -.175E+01 -.101E+01 -.366E+02   -.918E+00 -.530E+00 -.692E+00   0.208E-03 0.120E-03 0.191E-02
   -.264E+01 0.152E+01 0.372E+02   0.175E+01 -.101E+01 -.366E+02   0.918E+00 -.530E+00 -.692E+00   -.208E-03 0.120E-03 0.191E-02
   -.259E-05 -.150E-05 -.300E+04   -.618E-08 -.249E-08 0.296E+04   -.374E-17 -.401E-17 0.434E+01   -.479E-10 -.277E-10 -.852E-03
   -.146E-05 -.307E-01 -.313E+04   0.528E-08 -.823E-08 0.312E+04   -.182E-17 0.310E-01 0.309E+01   0.762E-09 0.762E-04 0.386E-03
   -.266E-01 0.154E-01 -.313E+04   -.485E-08 0.823E-08 0.312E+04   0.268E-01 -.155E-01 0.309E+01   0.660E-04 -.381E-04 0.386E-03
   0.266E-01 0.154E-01 -.313E+04   0.607E-08 0.219E-08 0.312E+04   -.268E-01 -.155E-01 0.309E+01   -.660E-04 -.381E-04 0.386E-03
   0.799E-07 0.461E-07 -.482E+03   -.339E-09 -.182E-09 0.519E+03   0.120E-19 -.596E-20 -.671E+01   0.248E-11 0.143E-11 -.839E-04
 -----------------------------------------------------------------------------------------------
   -.401E-05 -.231E-05 0.355E+01   0.994E-13 -.356E-13 0.227E-12   0.120E-19 -.596E-20 -.357E+01   -.198E-09 -.115E-09 0.115E-01
 
 
 POSITION                                       TOTAL-FORCE (eV/Angst)
 -----------------------------------------------------------------------------------
      1.27810      0.73791     15.00000        -0.076615     -0.044234      0.171529
      3.83429      0.73791     15.00000         0.076615     -0.044234      0.171529
      2.55619      2.95164     15.00000         0.000000      0.088468      0.171529
      5.11238      2.95164     15.00000         0.000000     -0.000000      0.110305
      5.11238      1.47582     17.08712         0.000000      0.032742     -0.130017
      2.55619      1.47582     17.08712         0.000000     -0.000000      0.034431
      6.39048      3.68954     17.08712        -0.028355     -0.016371     -0.130017
      3.83429      3.68954     17.08712         0.028355     -0.016371     -0.130017
      0.00000      0.00000     19.17424         0.000000     -0.000000    -30.055122
      2.55619      0.00000     19.17424         0.000000      0.000333     -0.150917
      1.27810      2.21373     19.17424         0.000288     -0.000166     -0.150917
      3.83429      2.21373     19.17424        -0.000288     -0.000166     -0.150917
      0.00000      0.00000     20.13249         0.000000     -0.000000     30.238599
 -----------------------------------------------------------------------------------
    total drift:                               -0.000004     -0.000002     -0.006709


--------------------------------------------------------------------------------------------------------



  FREE ENERGIE OF THE ION-ELECTRON SYSTEM (eV)
  ---------------------------------------------------
  free  energy   TOTEN  =       -43.62368470 eV

  energy  without entropy=      -43.59024085  energy(sigma->0) =      -43.60696277
 


--------------------------------------------------------------------------------------------------------


    POTLOK:  cpu time      0.0507: real time      0.0532


--------------------------------------------------------------------------------------------------------




--------------------------------------------------------------------------------------------------------


    WAVPRE:  cpu time      1.8737: real time      2.2924
    FEWALD:  cpu time      0.0005: real time      0.0005
    ORTHCH:  cpu time      0.2015: real time      0.2038
     LOOP+:  cpu time     96.4843: real time     97.8372


--------------------------------------- Iteration      2(   1)  ---------------------------------------


    POTLOK:  cpu time      0.0531: real time      0.0539
    SETDIJ:  cpu time      0.0031: real time      0.0031
     EDDAV:  cpu time      2.2031: real time      2.2243
       DOS:  cpu time      0.0016: real time      0.0016
    CHARGE:  cpu time      0.1084: real time      0.1092
    MIXING:  cpu time      0.0008: real time      0.0008
    --------------------------------------------
      LOOP:  cpu time      2.3701: real time      2.3929

 eigenvalue-minimisations  :  1920
 total energy-change (2. order) :-0.3795092E+01  (-0.9730706E+01)
 number of electron     133.0000047 magnetization      -0.0000603
 augmentation part       84.0742212 magnetization       0.0018930

 Broyden mixing:
  rms(total) = 0.47573E+00    rms(broyden)= 0.47569E+00
  rms(prec ) = 0.50620E+00
  weight for this iteration     100.00

 Free energy of the ion-electron system (eV)
  ---------------------------------------------------
  alpha Z        PSCENC =       137.59429322
  Ewald energy   TEWEN  =    123376.46404490
  -Hartree energ DENC   =   -138809.05052213
  -exchange      EXHF   =         0.00000000
  -V(xc)+E(xc)   XCENC  =       535.50996615
  PAW double counting   =     15782.38319024   -17078.38032877
  entropy T*S    EENTRO =        -0.04003476
  eigenvalues    EBANDS =      -691.43600843
  atomic energy  EATOM  =     16704.21750749
  Solvation  Ecorr_sol  =         0.00000000
  ---------------------------------------------------
  free energy    TOTEN  =       -42.73789210 eV

  energy without entropy =      -42.69785733  energy(sigma->0) =      -42.71787471


--------------------------------------------------------------------------------------------------------




--------------------------------------- Iteration      2(   2)  ---------------------------------------


    POTLOK:  cpu time      0.0437: real time      0.0443
    SETDIJ:  cpu time      0.0036: real time      0.0037
     EDDAV:  cpu time      2.6963: real time      2.7224
       DOS:  cpu time      0.0003: real time      0.0003
    CHARGE:  cpu time      0.1070: real time      0.1079
    MIXING:  cpu time      0.0009: real time      0.0009
    --------------------------------------------
      LOOP:  cpu time      2.8519: real time      2.8795

 eigenvalue-minimisations  :  2432
 total energy-change (2. order) : 0.1994222E-02  (-0.6418938E+00)
 number of electron     133.0000047 magnetization       0.0000572
 augmentation part       84.7648134 magnetization      -0.0019199

 Broyden mixing:
  rms(total) = 0.43995E+00    rms(broyden)= 0.43994E+00
  rms(prec ) = 0.47766E+00
  weight for this iteration     100.00

 eigenvalues of (default mixing * dielectric matrix)
  average eigenvalue GAMMA=   0.5456
  0.5456

 Free energy of the ion-electron system (eV)
  ---------------------------------------------------
  alpha Z        PSCENC =       137.59429322
  Ewald energy   TEWEN  =    123376.46404490
  -Hartree energ DENC   =   -138744.59289423
  -exchange      EXHF   =         0.00000000
  -V(xc)+E(xc)   XCENC  =       535.19746623
  PAW double counting   =     15671.72353609   -16961.97625863
  entropy T*S    EENTRO =        -0.03619603
  eigenvalues    EBANDS =      -761.32739693
  atomic energy  EATOM  =     16704.21750749
  Solvation  Ecorr_sol  =         0.00000000
  ---------------------------------------------------
  free energy    TOTEN  =       -42.73589787 eV

  energy without entropy =      -42.69970184  energy(sigma->0) =      -42.71779986


--------------------------------------------------------------------------------------------------------




--------------------------------------- Iteration      2(   3)  ---------------------------------------


    POTLOK:  cpu time      0.0444: real time      0.0449
    SETDIJ:  cpu time      0.0041: real time      0.0041
     EDDAV:  cpu time      2.8572: real time      2.8856
       DOS:  cpu time      0.0008: real time      0.0008
    CHARGE:  cpu time      0.1076: real time      0.1081
    MIXING:  cpu time      0.0011: real time      0.0011
    --------------------------------------------
      LOOP:  cpu time      3.0152: real time      3.0446

 eigenvalue-minimisations  :  2592
 total energy-change (2. order) : 0.1378043E+00  (-0.4403001E+00)
 number of electron     133.0000046 magnetization       0.0000821
 augmentation part       84.1902716 magnetization       0.0010680

 Broyden mixing:
  rms(total) = 0.25347E+00    rms(broyden)= 0.25346E+00
  rms(prec ) = 0.27772E+00
  weight for this iteration     100.00

 eigenvalues of (default mixing * dielectric matrix)
  average eigenvalue GAMMA=   1.0929
  1.7922  0.3937

 Free energy of the ion-electron system (eV)
  ---------------------------------------------------
  alpha Z        PSCENC =       137.59429322
  Ewald energy   TEWEN  =    123376.46404490
  -Hartree energ DENC   =   -138778.54941453
  -exchange      EXHF   =         0.00000000
  -V(xc)+E(xc)   XCENC  =       535.67484455
  PAW double counting   =     15674.51450952   -16968.40000594
  entropy T*S    EENTRO =        -0.03501166
  eigenvalues    EBANDS =      -724.07886108
  atomic energy  EATOM  =     16704.21750749
  Solvation  Ecorr_sol  =         0.00000000
  ---------------------------------------------------
  free energy    TOTEN  =       -42.59809353 eV

  energy without entropy =      -42.56308187  energy(sigma->0) =      -42.58058770


--------------------------------------------------------------------------------------------------------




--------------------------------------- Iteration      2(   4)  ---------------------------------------


    POTLOK:  cpu time      0.0444: real time      0.0452
    SETDIJ:  cpu time      0.0038: real time      0.0038
     EDDAV:  cpu time      3.2604: real time      3.2920
       DOS:  cpu time      0.0003: real time      0.0003
    CHARGE:  cpu time      0.1102: real time      0.1110
    MIXING:  cpu time      0.0009: real time      0.0009
    --------------------------------------------
      LOOP:  cpu time      3.4201: real time      3.4533

 eigenvalue-minimisations  :  3040
 total energy-change (2. order) :-0.9061663E-03  (-0.1854753E+00)
 number of electron     133.0000048 magnetization       0.0000749
 augmentation part       84.2421794 magnetization       0.0007958

 Broyden mixing:
  rms(total) = 0.24292E+00    rms(broyden)= 0.24291E+00
  rms(prec ) = 0.27158E+00
  weight for this iteration     100.00

 eigenvalues of (default mixing * dielectric matrix)
  average eigenvalue GAMMA=   0.9944
  2.2123  0.4654  0.3055

 Free energy of the ion-electron system (eV)
  ---------------------------------------------------
  alpha Z        PSCENC =       137.59429322
  Ewald energy   TEWEN  =    123376.46404490
  -Hartree energ DENC   =   -138761.61039392
  -exchange      EXHF   =         0.00000000
  -V(xc)+E(xc)   XCENC  =       535.70541637
  PAW double counting   =     15610.77743810   -16903.11501349
  entropy T*S    EENTRO =        -0.03476171
  eigenvalues    EBANDS =      -742.59753065
  atomic energy  EATOM  =     16704.21750749
  Solvation  Ecorr_sol  =         0.00000000
  ---------------------------------------------------
  free energy    TOTEN  =       -42.59899970 eV

  energy without entropy =      -42.56423798  energy(sigma->0) =      -42.58161884


--------------------------------------------------------------------------------------------------------




--------------------------------------- Iteration      2(   5)  ---------------------------------------


    POTLOK:  cpu time      0.0446: real time      0.0451
    SETDIJ:  cpu time      0.0031: real time      0.0031
     EDDAV:  cpu time      3.0132: real time      3.0422
       DOS:  cpu time      0.0008: real time      0.0008
    CHARGE:  cpu time      0.1057: real time      0.1062
    MIXING:  cpu time      0.0012: real time      0.0012
    --------------------------------------------
      LOOP:  cpu time      3.1686: real time      3.1987

 eigenvalue-minimisations  :  2784
 total energy-change (2. order) : 0.1093413E+00  (-0.5508178E-01)
 number of electron     133.0000047 magnetization       0.0000794
 augmentation part       84.3676612 magnetization      -0.0002867

 Broyden mixing:
  rms(total) = 0.72465E-01    rms(broyden)= 0.72454E-01
  rms(prec ) = 0.75248E-01
  weight for this iteration     100.00

 eigenvalues of (default mixing * dielectric matrix)
  average eigenvalue GAMMA=   1.0239
  2.3675  0.9927  0.3856  0.3500

 Free energy of the ion-electron system (eV)
  ---------------------------------------------------
  alpha Z        PSCENC =       137.59429322
  Ewald energy   TEWEN  =    123376.46404490
  -Hartree energ DENC   =   -138752.20461625
  -exchange      EXHF   =         0.00000000
  -V(xc)+E(xc)   XCENC  =       535.59667768
  PAW double counting   =     15584.15291173   -16875.16232516
  entropy T*S    EENTRO =        -0.03685961
  eigenvalues    EBANDS =      -753.11129244
  atomic energy  EATOM  =     16704.21750749
  Solvation  Ecorr_sol  =         0.00000000
  ---------------------------------------------------
  free energy    TOTEN  =       -42.48965844 eV

  energy without entropy =      -42.45279883  energy(sigma->0) =      -42.47122864


--------------------------------------------------------------------------------------------------------




--------------------------------------- Iteration      2(   6)  ---------------------------------------


    POTLOK:  cpu time      0.0446: real time      0.0451
    SETDIJ:  cpu time      0.0028: real time      0.0031
     EDDAV:  cpu time      3.4983: real time      3.5307
       DOS:  cpu time      0.0009: real time      0.0009
    CHARGE:  cpu time      0.1069: real time      0.1078
    MIXING:  cpu time      0.0014: real time      0.0014
    --------------------------------------------
      LOOP:  cpu time      3.6549: real time      3.6891

 eigenvalue-minimisations  :  3232
 total energy-change (2. order) :-0.5948397E-02  (-0.8085949E-02)
 number of electron     133.0000047 magnetization       0.0000903
 augmentation part       84.3700883 magnetization      -0.0009172

 Broyden mixing:
  rms(total) = 0.59030E-01    rms(broyden)= 0.59027E-01
  rms(prec ) = 0.64663E-01
  weight for this iteration     100.00

 eigenvalues of (default mixing * dielectric matrix)
  average eigenvalue GAMMA=   0.9131
  2.3153  1.2281  0.3775  0.3775  0.2670

 Free energy of the ion-electron system (eV)
  ---------------------------------------------------
  alpha Z        PSCENC =       137.59429322
  Ewald energy   TEWEN  =    123376.46404490
  -Hartree energ DENC   =   -138748.16562169
  -exchange      EXHF   =         0.00000000
  -V(xc)+E(xc)   XCENC  =       535.59286651
  PAW double counting   =     15578.05596201   -16868.91903567
  entropy T*S    EENTRO =        -0.03924716
  eigenvalues    EBANDS =      -757.29637645
  atomic energy  EATOM  =     16704.21750749
  Solvation  Ecorr_sol  =         0.00000000
  ---------------------------------------------------
  free energy    TOTEN  =       -42.49560684 eV

  energy without entropy =      -42.45635968  energy(sigma->0) =      -42.47598326


--------------------------------------------------------------------------------------------------------




--------------------------------------- Iteration      2(   7)  ---------------------------------------


    POTLOK:  cpu time      0.0450: real time      0.0528
    SETDIJ:  cpu time      0.0031: real time      0.0031
     EDDAV:  cpu time      3.3226: real time      3.3530
       DOS:  cpu time      0.0009: real time      0.0009
    CHARGE:  cpu time      0.1168: real time      0.1176
    MIXING:  cpu time      0.0012: real time      0.0012
    --------------------------------------------
      LOOP:  cpu time      3.4895: real time      3.5287

 eigenvalue-minimisations  :  3040
 total energy-change (2. order) : 0.4566227E-02  (-0.2770577E-02)
 number of electron     133.0000047 magnetization       0.0000948
 augmentation part       84.3365784 magnetization      -0.0006697

 Broyden mixing:
  rms(total) = 0.21909E-01    rms(broyden)= 0.21906E-01
  rms(prec ) = 0.23317E-01
  weight for this iteration     100.00

 eigenvalues of (default mixing * dielectric matrix)
  average eigenvalue GAMMA=   1.0303
  2.3692  1.8312  0.8842  0.4338  0.3502  0.3133

 Free energy of the ion-electron system (eV)
  ---------------------------------------------------
  alpha Z        PSCENC =       137.59429322
  Ewald energy   TEWEN  =    123376.46404490
  -Hartree energ DENC   =   -138748.79633398
  -exchange      EXHF   =         0.00000000
  -V(xc)+E(xc)   XCENC  =       535.61185116
  PAW double counting   =     15579.92680743   -16871.00310604
  entropy T*S    EENTRO =        -0.03747276
  eigenvalues    EBANDS =      -756.46863204
  atomic energy  EATOM  =     16704.21750749
  Solvation  Ecorr_sol  =         0.00000000
  ---------------------------------------------------
  free energy    TOTEN  =       -42.49104061 eV

  energy without entropy =      -42.45356786  energy(sigma->0) =      -42.47230424


--------------------------------------------------------------------------------------------------------




--------------------------------------- Iteration      2(   8)  ---------------------------------------


    POTLOK:  cpu time      0.0446: real time      0.0476
    SETDIJ:  cpu time      0.0036: real time      0.0037
     EDDAV:  cpu time      3.3112: real time      3.3432
       DOS:  cpu time      0.0010: real time      0.0010
    CHARGE:  cpu time      0.1100: real time      0.1108
    MIXING:  cpu time      0.0012: real time      0.0012
    --------------------------------------------
      LOOP:  cpu time      3.4716: real time      3.5075

 eigenvalue-minimisations  :  3072
 total energy-change (2. order) :-0.8613986E-03  (-0.6061787E-03)
 number of electron     133.0000047 magnetization       0.0000910
 augmentation part       84.3278330 magnetization      -0.0005524

 Broyden mixing:
  rms(total) = 0.11682E-01    rms(broyden)= 0.11682E-01
  rms(prec ) = 0.12493E-01
  weight for this iteration     100.00

 eigenvalues of (default mixing * dielectric matrix)
  average eigenvalue GAMMA=   1.0381
  2.6974  1.8894  1.0112  0.5811  0.4270  0.3303  0.3303

 Free energy of the ion-electron system (eV)
  ---------------------------------------------------
  alpha Z        PSCENC =       137.59429322
  Ewald energy   TEWEN  =    123376.46404490
  -Hartree energ DENC   =   -138746.63807373
  -exchange      EXHF   =         0.00000000
  -V(xc)+E(xc)   XCENC  =       535.60952097
  PAW double counting   =     15579.58701959   -16870.64244907
  entropy T*S    EENTRO =        -0.03749350
  eigenvalues    EBANDS =      -758.64627189
  atomic energy  EATOM  =     16704.21750749
  Solvation  Ecorr_sol  =         0.00000000
  ---------------------------------------------------
  free energy    TOTEN  =       -42.49190201 eV

  energy without entropy =      -42.45440851  energy(sigma->0) =      -42.47315526


--------------------------------------------------------------------------------------------------------




--------------------------------------- Iteration      2(   9)  ---------------------------------------


    POTLOK:  cpu time      0.0455: real time      0.0464
    SETDIJ:  cpu time      0.0031: real time      0.0031
     EDDAV:  cpu time      3.2046: real time      3.2350
       DOS:  cpu time      0.0009: real time      0.0009
    CHARGE:  cpu time      0.1152: real time      0.1158
    MIXING:  cpu time      0.0013: real time      0.0013
    --------------------------------------------
      LOOP:  cpu time      3.3706: real time      3.4024

 eigenvalue-minimisations  :  2944
 total energy-change (2. order) :-0.5230220E-03  (-0.1560654E-03)
 number of electron     133.0000047 magnetization       0.0000874
 augmentation part       84.3262064 magnetization      -0.0004299

 Broyden mixing:
  rms(total) = 0.63723E-02    rms(broyden)= 0.63718E-02
  rms(prec ) = 0.68110E-02
  weight for this iteration     100.00

 eigenvalues of (default mixing * dielectric matrix)
  average eigenvalue GAMMA=   1.0398
  2.6595  1.7889  1.1778  1.1778  0.3296  0.3296  0.4278  0.4278

 Free energy of the ion-electron system (eV)
  ---------------------------------------------------
  alpha Z        PSCENC =       137.59429322
  Ewald energy   TEWEN  =    123376.46404490
  -Hartree energ DENC   =   -138745.04790445
  -exchange      EXHF   =         0.00000000
  -V(xc)+E(xc)   XCENC  =       535.60734717
  PAW double counting   =     15579.45032695   -16870.48341881
  entropy T*S    EENTRO =        -0.03748369
  eigenvalues    EBANDS =      -760.25713781
  atomic energy  EATOM  =     16704.21750749
  Solvation  Ecorr_sol  =         0.00000000
  ---------------------------------------------------
  free energy    TOTEN  =       -42.49242503 eV

  energy without entropy =      -42.45494134  energy(sigma->0) =      -42.47368319


--------------------------------------------------------------------------------------------------------




--------------------------------------- Iteration      2(  10)  ---------------------------------------


    POTLOK:  cpu time      0.0446: real time      0.0452
    SETDIJ:  cpu time      0.0038: real time      0.0038
     EDDAV:  cpu time      2.7673: real time      2.7930
       DOS:  cpu time      0.0003: real time      0.0003
    CHARGE:  cpu time      0.1236: real time      0.1242
    MIXING:  cpu time      0.0019: real time      0.0020
    --------------------------------------------
      LOOP:  cpu time      2.9414: real time      2.9684

 eigenvalue-minimisations  :  2464
 total energy-change (2. order) :-0.3850557E-03  (-0.4673077E-04)
 number of electron     133.0000047 magnetization       0.0000830
 augmentation part       84.3226728 magnetization      -0.0003273

 Broyden mixing:
  rms(total) = 0.25719E-02    rms(broyden)= 0.25717E-02
  rms(prec ) = 0.32037E-02
  weight for this iteration     100.00

 eigenvalues of (default mixing * dielectric matrix)
  average eigenvalue GAMMA=   1.0634
  2.6702  2.1165  1.2708  1.2708  0.7236  0.3218  0.3381  0.4135  0.4451

 Free energy of the ion-electron system (eV)
  ---------------------------------------------------
  alpha Z        PSCENC =       137.59429322
  Ewald energy   TEWEN  =    123376.46404490
  -Hartree energ DENC   =   -138744.34768237
  -exchange      EXHF   =         0.00000000
  -V(xc)+E(xc)   XCENC  =       535.60757156
  PAW double counting   =     15580.61581855   -16871.68271534
  entropy T*S    EENTRO =        -0.03741193
  eigenvalues    EBANDS =      -760.92423617
  atomic energy  EATOM  =     16704.21750749
  Solvation  Ecorr_sol  =         0.00000000
  ---------------------------------------------------
  free energy    TOTEN  =       -42.49281009 eV

  energy without entropy =      -42.45539816  energy(sigma->0) =      -42.47410412


--------------------------------------------------------------------------------------------------------




--------------------------------------- Iteration      2(  11)  ---------------------------------------


    POTLOK:  cpu time      0.0441: real time      0.0449
    SETDIJ:  cpu time      0.0033: real time      0.0034
     EDDAV:  cpu time      2.1469: real time      2.1671
       DOS:  cpu time      0.0012: real time      0.0012
    CHARGE:  cpu time      0.1060: real time      0.1069
    MIXING:  cpu time      0.0020: real time      0.0020
    --------------------------------------------
      LOOP:  cpu time      2.3036: real time      2.3255

 eigenvalue-minimisations  :  1792
 total energy-change (2. order) :-0.3799892E-03  (-0.1229540E-04)
 number of electron     133.0000047 magnetization       0.0000722
 augmentation part       84.3241325 magnetization      -0.0002929

 Broyden mixing:
  rms(total) = 0.13370E-02    rms(broyden)= 0.13370E-02
  rms(prec ) = 0.18200E-02
  weight for this iteration     100.00

 eigenvalues of (default mixing * dielectric matrix)
  average eigenvalue GAMMA=   1.1412
  2.7519  2.4531  1.7375  1.2182  0.8674  0.8674  0.3222  0.3379  0.4187  0.4378

 Free energy of the ion-electron system (eV)
  ---------------------------------------------------
  alpha Z        PSCENC =       137.59429322
  Ewald energy   TEWEN  =    123376.46404490
  -Hartree energ DENC   =   -138743.30834418
  -exchange      EXHF   =         0.00000000
  -V(xc)+E(xc)   XCENC  =       535.60097929
  PAW double counting   =     15581.39104947   -16872.44203060
  entropy T*S    EENTRO =        -0.03742998
  eigenvalues    EBANDS =      -761.97325970
  atomic energy  EATOM  =     16704.21750749
  Solvation  Ecorr_sol  =         0.00000000
  ---------------------------------------------------
  free energy    TOTEN  =       -42.49319008 eV

  energy without entropy =      -42.45576010  energy(sigma->0) =      -42.47447509


--------------------------------------------------------------------------------------------------------




--------------------------------------- Iteration      2(  12)  ---------------------------------------


    POTLOK:  cpu time      0.0456: real time      0.0461
    SETDIJ:  cpu time      0.0035: real time      0.0036
     EDDAV:  cpu time      2.5811: real time      2.6054
       DOS:  cpu time      0.0003: real time      0.0003
    CHARGE:  cpu time      0.1055: real time      0.1063
    MIXING:  cpu time      0.0016: real time      0.0016
    --------------------------------------------
      LOOP:  cpu time      2.7376: real time      2.7632

 eigenvalue-minimisations  :  2304
 total energy-change (2. order) :-0.4786411E-03  (-0.1704621E-04)
 number of electron     133.0000047 magnetization       0.0000683
 augmentation part       84.3244612 magnetization      -0.0002920

 Broyden mixing:
  rms(total) = 0.12096E-02    rms(broyden)= 0.12096E-02
  rms(prec ) = 0.14288E-02
  weight for this iteration     100.00

 eigenvalues of (default mixing * dielectric matrix)
  average eigenvalue GAMMA=   1.1322
  2.9011  2.7153  1.7786  1.2748  0.8242  0.8242  0.6162  0.3222  0.3379  0.4435
  0.4162

 Free energy of the ion-electron system (eV)
  ---------------------------------------------------
  alpha Z        PSCENC =       137.59429322
  Ewald energy   TEWEN  =    123376.46404490
  -Hartree energ DENC   =   -138741.86146050
  -exchange      EXHF   =         0.00000000
  -V(xc)+E(xc)   XCENC  =       535.59684662
  PAW double counting   =     15582.15295599   -16873.20468910
  entropy T*S    EENTRO =        -0.03747850
  eigenvalues    EBANDS =      -763.41568886
  atomic energy  EATOM  =     16704.21750749
  Solvation  Ecorr_sol  =         0.00000000
  ---------------------------------------------------
  free energy    TOTEN  =       -42.49366872 eV

  energy without entropy =      -42.45619022  energy(sigma->0) =      -42.47492947


--------------------------------------------------------------------------------------------------------




--------------------------------------- Iteration      2(  13)  ---------------------------------------


    POTLOK:  cpu time      0.0441: real time      0.0450
    SETDIJ:  cpu time      0.0031: real time      0.0032
     EDDAV:  cpu time      2.2169: real time      2.2384
       DOS:  cpu time      0.0013: real time      0.0013
    CHARGE:  cpu time      0.1093: real time      0.1098
    MIXING:  cpu time      0.0021: real time      0.0021
    --------------------------------------------
      LOOP:  cpu time      2.3768: real time      2.3998

 eigenvalue-minimisations  :  1856
 total energy-change (2. order) :-0.1537289E-03  (-0.2759567E-05)
 number of electron     133.0000047 magnetization       0.0000605
 augmentation part       84.3247221 magnetization      -0.0002809

 Broyden mixing:
  rms(total) = 0.83066E-03    rms(broyden)= 0.83064E-03
  rms(prec ) = 0.10198E-02
  weight for this iteration     100.00

 eigenvalues of (default mixing * dielectric matrix)
  average eigenvalue GAMMA=   1.1713
  3.3110  2.7122  1.6990  1.6990  0.9410  0.8702  0.8702  0.3222  0.3378  0.4491
  0.4222  0.4222

 Free energy of the ion-electron system (eV)
  ---------------------------------------------------
  alpha Z        PSCENC =       137.59429322
  Ewald energy   TEWEN  =    123376.46404490
  -Hartree energ DENC   =   -138741.37755715
  -exchange      EXHF   =         0.00000000
  -V(xc)+E(xc)   XCENC  =       535.59555743
  PAW double counting   =     15582.39750913   -16873.45078911
  entropy T*S    EENTRO =        -0.03748735
  eigenvalues    EBANDS =      -763.89690101
  atomic energy  EATOM  =     16704.21750749
  Solvation  Ecorr_sol  =         0.00000000
  ---------------------------------------------------
  free energy    TOTEN  =       -42.49382245 eV

  energy without entropy =      -42.45633510  energy(sigma->0) =      -42.47507877


--------------------------------------------------------------------------------------------------------




--------------------------------------- Iteration      2(  14)  ---------------------------------------


    POTLOK:  cpu time      0.0445: real time      0.0454
    SETDIJ:  cpu time      0.0036: real time      0.0036
     EDDAV:  cpu time      2.3105: real time      2.3316
       DOS:  cpu time      0.0004: real time      0.0004
    CHARGE:  cpu time      0.1056: real time      0.1061
    MIXING:  cpu time      0.0018: real time      0.0018
    --------------------------------------------
      LOOP:  cpu time      2.4664: real time      2.4888

 eigenvalue-minimisations  :  1984
 total energy-change (2. order) :-0.2111133E-03  (-0.3419600E-05)
 number of electron     133.0000047 magnetization       0.0000546
 augmentation part       84.3236684 magnetization      -0.0002597

 Broyden mixing:
  rms(total) = 0.59909E-03    rms(broyden)= 0.59907E-03
  rms(prec ) = 0.72968E-03
  weight for this iteration     100.00

 eigenvalues of (default mixing * dielectric matrix)
  average eigenvalue GAMMA=   1.1986
  3.7453  2.7462  1.8757  1.8757  0.9899  0.9899  0.7837  0.6988  0.4396  0.4175
  0.3222  0.3380  0.3589

 Free energy of the ion-electron system (eV)
  ---------------------------------------------------
  alpha Z        PSCENC =       137.59429322
  Ewald energy   TEWEN  =    123376.46404490
  -Hartree energ DENC   =   -138740.73164372
  -exchange      EXHF   =         0.00000000
  -V(xc)+E(xc)   XCENC  =       535.59508428
  PAW double counting   =     15582.60664378   -16873.67278761
  entropy T*S    EENTRO =        -0.03748032
  eigenvalues    EBANDS =      -764.52969558
  atomic energy  EATOM  =     16704.21750749
  Solvation  Ecorr_sol  =         0.00000000
  ---------------------------------------------------
  free energy    TOTEN  =       -42.49403356 eV

  energy without entropy =      -42.45655324  energy(sigma->0) =      -42.47529340


--------------------------------------------------------------------------------------------------------




--------------------------------------- Iteration      2(  15)  ---------------------------------------


    POTLOK:  cpu time      0.0439: real time      0.0447
    SETDIJ:  cpu time      0.0041: real time      0.0042
     EDDAV:  cpu time      2.1926: real time      2.2124
       DOS:  cpu time      0.0008: real time      0.0008
    --------------------------------------------
      LOOP:  cpu time      2.2414: real time      2.2621

 eigenvalue-minimisations  :  1856
 total energy-change (2. order) :-0.9914700E-04  (-0.1287953E-05)
 number of electron     133.0000047 magnetization       0.0000546
 augmentation part       84.3236684 magnetization      -0.0002597

 Free energy of the ion-electron system (eV)
  ---------------------------------------------------
  alpha Z        PSCENC =       137.59429322
  Ewald energy   TEWEN  =    123376.46404490
  -Hartree energ DENC   =   -138740.37501604
  -exchange      EXHF   =         0.00000000
  -V(xc)+E(xc)   XCENC  =       535.59411759
  PAW double counting   =     15582.59996476   -16873.66660961
  entropy T*S    EENTRO =        -0.03749355
  eigenvalues    EBANDS =      -764.88494146
  atomic energy  EATOM  =     16704.21750749
  Solvation  Ecorr_sol  =         0.00000000
  ---------------------------------------------------
  free energy    TOTEN  =       -42.49413271 eV

  energy without entropy =      -42.45663916  energy(sigma->0) =      -42.47538593


--------------------------------------------------------------------------------------------------------




 average (electrostatic) potential at core
  the test charge radii are     0.9430  0.5201
  (the norm of the test charge is              1.0000)
       1 -73.9953       2 -73.9953       3 -73.9953       4 -74.0250       5 -74.2752
       6 -74.2914       7 -74.2752       8 -74.2752       9 -74.0709      10 -73.9347
      11 -73.9347      12 -73.9347      13 -38.3986
 
 
 
 E-fermi :  -2.9816     XC(G=0):  -3.0566     alpha+bet : -2.4952

 Fermi energy:        -2.9815568485

 spin component 1

 k-point     1 :       0.0000    0.0000    0.0000
  band No.  band energies     occupation 
      1     -11.5642      1.00000
      2      -9.5691      1.00000
      3      -8.1153      1.00000
      4      -7.6930      1.00000
      5      -7.6930      1.00000
      6      -7.6921      1.00000
      7      -7.4663      1.00000
      8      -7.4663      1.00000
      9      -7.4570      1.00000
     10      -7.0834      1.00000
     11      -7.0829      1.00000
     12      -7.0829      1.00000
     13      -7.0194      1.00000
     14      -7.0194      1.00000
     15      -7.0082      1.00000
     16      -6.3600      1.00000
     17      -6.3600      1.00000
     18      -6.3456      1.00000
     19      -6.0277      1.00000
     20      -6.0254      1.00000
     21      -6.0254      1.00000
     22      -5.9694      1.00000
     23      -5.9551      1.00000
     24      -5.9551      1.00000
     25      -5.8890      1.00000
     26      -5.7138      1.00000
     27      -5.7138      1.00000
     28      -5.7078      1.00000
     29      -5.7078      1.00000
     30      -5.6988      1.00000
     31      -5.5820      1.00000
     32      -5.5820      1.00000
     33      -5.5271      1.00000
     34      -5.4547      1.00000
     35      -5.4547      1.00000
     36      -5.0839      1.00000
     37      -5.0839      1.00000
     38      -5.0506      1.00000
     39      -5.0485      1.00000
     40      -5.0485      1.00000
     41      -5.0192      1.00000
     42      -5.0192      1.00000
     43      -4.9872      1.00000
     44      -4.8673      1.00000
     45      -4.7651      1.00000
     46      -4.7651      1.00000
     47      -4.6522      1.00000
     48      -4.6522      1.00000
     49      -4.6409      1.00000
     50      -4.5798      1.00000
     51      -4.5798      1.00000
     52      -4.5600      1.00000
     53      -4.5600      1.00000
     54      -4.5597      1.00000
     55      -4.5556      1.00000
     56      -4.5528      1.00000
     57      -4.5528      1.00000
     58      -4.3324      1.00000
     59      -4.3324      1.00000
     60      -4.3237      1.00000
     61      -4.3091      1.00000
     62      -4.3091      1.00000
     63      -4.2706      1.00000
     64      -3.5845      1.00000
     65      -2.8933      0.03669
     66      -2.8893      0.03177
     67      -2.8893      0.03176
     68      -1.7785      0.00000
     69      -1.7729      0.00000
     70      -1.7729      0.00000
     71      -1.6837      0.00000
     72      -1.3647      0.00000
     73      -1.3526      0.00000
     74      -1.3526      0.00000
     75       1.5519      0.00000
     76       1.5678      0.00000
     77       1.5678      0.00000
     78       1.6942      0.00000
     79       2.2596      0.00000
     80       2.3711      0.00000
     81       2.5904      0.00000
     82       2.8032      0.00000
     83       2.8032      0.00000
     84       2.9633      0.00000
     85       3.1684      0.00000
     86       3.5756      0.00000
     87       3.5756      0.00000
     88       3.6200      0.00000
     89       3.7304      0.00000
     90       4.3981      0.00000
     91       4.8261      0.00000
     92       5.1829      0.00000
     93       6.0421      0.00000
     94       6.0421      0.00000
     95       6.2571      0.00000
     96       6.3265      0.00000

 k-point     2 :       0.2000    0.0000    0.0000
  band No.  band energies     occupation 
      1     -11.2476      1.00000
      2      -9.2736      1.00000
      3      -7.9776      1.00000
      4      -7.8808      1.00000
      5      -7.6096      1.00000
      6      -7.6088      1.00000
      7      -7.4726      1.00000
      8      -7.3640      1.00000
      9      -7.3580      1.00000
     10      -7.0907      1.00000
     11      -7.0224      1.00000
     12      -7.0218      1.00000
     13      -6.8705      1.00000
     14      -6.8534      1.00000
     15      -6.8448      1.00000
     16      -6.3576      1.00000
     17      -6.3485      1.00000
     18      -6.3327      1.00000
     19      -6.1175      1.00000
     20      -5.9870      1.00000
     21      -5.9762      1.00000
     22      -5.9671      1.00000
     23      -5.9662      1.00000
     24      -5.9458      1.00000
     25      -5.8764      1.00000
     26      -5.8543      1.00000
     27      -5.8488      1.00000
     28      -5.6977      1.00000
     29      -5.6758      1.00000
     30      -5.6341      1.00000
     31      -5.6311      1.00000
     32      -5.6206      1.00000
     33      -5.5564      1.00000
     34      -5.5409      1.00000
     35      -5.4738      1.00000
     36      -5.2357      1.00000
     37      -5.2085      1.00000
     38      -5.2012      1.00000
     39      -5.1736      1.00000
     40      -5.1067      1.00000
     41      -5.0766      1.00000
     42      -5.0407      1.00000
     43      -5.0391      1.00000
     44      -5.0113      1.00000
     45      -4.9091      1.00000
     46      -4.8432      1.00000
     47      -4.8348      1.00000
     48      -4.7731      1.00000
     49      -4.7442      1.00000
     50      -4.7336      1.00000
     51      -4.7187      1.00000
     52      -4.7140      1.00000
     53      -4.6669      1.00000
     54      -4.6512      1.00000
     55      -4.5989      1.00000
     56      -4.5709      1.00000
     57      -4.5547      1.00000
     58      -4.5306      1.00000
     59      -4.4628      1.00000
     60      -4.4551      1.00000
     61      -4.4441      1.00000
     62      -4.4114      1.00000
     63      -4.3016      1.00000
     64      -4.2042      1.00000
     65      -3.3306      1.00000
     66      -3.0555      0.93934
     67      -2.9614      0.32195
     68      -2.9610      0.31860
     69      -1.8717      0.00000
     70      -1.8409      0.00000
     71      -1.4241      0.00000
     72      -0.5703      0.00000
     73      -0.3544      0.00000
     74      -0.3218      0.00000
     75       1.9012      0.00000
     76       1.9316      0.00000
     77       1.9921      0.00000
     78       2.2698      0.00000
     79       2.5458      0.00000
     80       2.6154      0.00000
     81       2.8147      0.00000
     82       2.8567      0.00000
     83       2.9827      0.00000
     84       3.2582      0.00000
     85       3.5169      0.00000
     86       3.9566      0.00000
     87       4.0644      0.00000
     88       4.1798      0.00000
     89       4.3144      0.00000
     90       4.8325      0.00000
     91       5.1134      0.00000
     92       5.3905      0.00000
     93       5.6490      0.00000
     94       5.8097      0.00000
     95       6.2856      0.00000
     96       6.5851      0.00000

 k-point     3 :       0.4000    0.0000    0.0000
  band No.  band energies     occupation 
      1     -10.3405      1.00000
      2      -9.0414      1.00000
      3      -8.4829      1.00000
      4      -7.6914      1.00000
      5      -7.4190      1.00000
      6      -7.4178      1.00000
      7      -7.3185      1.00000
      8      -7.1498      1.00000
      9      -7.1436      1.00000
     10      -7.0153      1.00000
     11      -6.8449      1.00000
     12      -6.8443      1.00000
     13      -6.6094      1.00000
     14      -6.5855      1.00000
     15      -6.5763      1.00000
     16      -6.3690      1.00000
     17      -6.3346      1.00000
     18      -6.3010      1.00000
     19      -6.2881      1.00000
     20      -6.2350      1.00000
     21      -6.2232      1.00000
     22      -6.2117      1.00000
     23      -5.9873      1.00000
     24      -5.9599      1.00000
     25      -5.8067      1.00000
     26      -5.7901      1.00000
     27      -5.7849      1.00000
     28      -5.7205      1.00000
     29      -5.7152      1.00000
     30      -5.6932      1.00000
     31      -5.6437      1.00000
     32      -5.5996      1.00000
     33      -5.5935      1.00000
     34      -5.5398      1.00000
     35      -5.5310      1.00000
     36      -5.5245      1.00000
     37      -5.4973      1.00000
     38      -5.4590      1.00000
     39      -5.4529      1.00000
     40      -5.4402      1.00000
     41      -5.4278      1.00000
     42      -5.2890      1.00000
     43      -5.1881      1.00000
     44      -5.1799      1.00000
     45      -5.1607      1.00000
     46      -5.1332      1.00000
     47      -5.0701      1.00000
     48      -5.0548      1.00000
     49      -5.0175      1.00000
     50      -4.9938      1.00000
     51      -4.8704      1.00000
     52      -4.8623      1.00000
     53      -4.8201      1.00000
     54      -4.8044      1.00000
     55      -4.7983      1.00000
     56      -4.7924      1.00000
     57      -4.7494      1.00000
     58      -4.6034      1.00000
     59      -4.5617      1.00000
     60      -4.5563      1.00000
     61      -4.5380      1.00000
     62      -4.5086      1.00000
     63      -4.4717      1.00000
     64      -4.4526      1.00000
     65      -3.6365      1.00000
     66      -2.9793      0.47929
     67      -2.9637      0.34078
     68      -2.6648      0.00001
     69      -1.8738      0.00000
     70      -1.7783      0.00000
     71      -1.6682      0.00000
     72      -0.4544      0.00000
     73       0.6067      0.00000
     74       0.6783      0.00000
     75       1.1922      0.00000
     76       2.7905      0.00000
     77       2.9240      0.00000
     78       2.9377      0.00000
     79       3.3874      0.00000
     80       3.5214      0.00000
     81       3.8010      0.00000
     82       3.9560      0.00000
     83       3.9843      0.00000
     84       4.1591      0.00000
     85       4.4361      0.00000
     86       4.7395      0.00000
     87       4.8451      0.00000
     88       4.8686      0.00000
     89       4.9030      0.00000
     90       5.0070      0.00000
     91       5.2847      0.00000
     92       5.5109      0.00000
     93       5.5961      0.00000
     94       5.5988      0.00000
     95       5.7657      0.00000
     96       5.9386      0.00000

 k-point     4 :       0.4000    0.2000    0.0000
  band No.  band energies     occupation 
      1     -10.6338      1.00000
      2      -8.7234      1.00000
      3      -8.2467      1.00000
      4      -8.2402      1.00000
      5      -7.4684      1.00000
      6      -7.4154      1.00000
      7      -7.4116      1.00000
      8      -7.2108      1.00000
      9      -7.1034      1.00000
     10      -6.9570      1.00000
     11      -6.9529      1.00000
     12      -6.8521      1.00000
     13      -6.6498      1.00000
     14      -6.6476      1.00000
     15      -6.6300      1.00000
     16      -6.3623      1.00000
     17      -6.3608      1.00000
     18      -6.3312      1.00000
     19      -6.3067      1.00000
     20      -6.1671      1.00000
     21      -6.1217      1.00000
     22      -6.0231      1.00000
     23      -6.0216      1.00000
     24      -6.0191      1.00000
     25      -5.8582      1.00000
     26      -5.8071      1.00000
     27      -5.7990      1.00000
     28      -5.7565      1.00000
     29      -5.7346      1.00000
     30      -5.6847      1.00000
     31      -5.6742      1.00000
     32      -5.6393      1.00000
     33      -5.6336      1.00000
     34      -5.5585      1.00000
     35      -5.4306      1.00000
     36      -5.4111      1.00000
     37      -5.3956      1.00000
     38      -5.3515      1.00000
     39      -5.3395      1.00000
     40      -5.3052      1.00000
     41      -5.2731      1.00000
     42      -5.2591      1.00000
     43      -5.2381      1.00000
     44      -5.1590      1.00000
     45      -5.1076      1.00000
     46      -5.0787      1.00000
     47      -5.0480      1.00000
     48      -5.0042      1.00000
     49      -4.9925      1.00000
     50      -4.9872      1.00000
     51      -4.8898      1.00000
     52      -4.7973      1.00000
     53      -4.7825      1.00000
     54      -4.7220      1.00000
     55      -4.6864      1.00000
     56      -4.6521      1.00000
     57      -4.6056      1.00000
     58      -4.5999      1.00000
     59      -4.5840      1.00000
     60      -4.5713      1.00000
     61      -4.5698      1.00000
     62      -4.5372      1.00000
     63      -4.2315      1.00000
     64      -4.2306      1.00000
     65      -3.9054      1.00000
     66      -3.5710      1.00000
     67      -3.4975      1.00000
     68      -2.6543      0.00001
     69      -1.1826      0.00000
     70      -1.1229      0.00000
     71      -1.0284      0.00000
     72      -0.5193      0.00000
     73      -0.4808      0.00000
     74       0.2010      0.00000
     75       2.0831      0.00000
     76       2.2318      0.00000
     77       2.2423      0.00000
     78       2.6100      0.00000
     79       3.1677      0.00000
     80       3.3280      0.00000
     81       3.5162      0.00000
     82       3.7109      0.00000
     83       3.8753      0.00000
     84       4.0453      0.00000
     85       4.1484      0.00000
     86       4.3075      0.00000
     87       4.5553      0.00000
     88       4.6447      0.00000
     89       5.0395      0.00000
     90       5.3662      0.00000
     91       5.5412      0.00000
     92       5.6730      0.00000
     93       5.8123      0.00000
     94       5.9450      0.00000
     95       6.0654      0.00000
     96       6.1604      0.00000

 k-point     5 :      -0.4000    0.2000    0.0000
  band No.  band energies     occupation 
      1      -9.5108      1.00000
      2      -9.5038      1.00000
      3      -8.3416      1.00000
      4      -7.8758      1.00000
      5      -7.8719      1.00000
      6      -7.3256      1.00000
      7      -6.9479      1.00000
      8      -6.9467      1.00000
      9      -6.9173      1.00000
     10      -6.9056      1.00000
     11      -6.7429      1.00000
     12      -6.7012      1.00000
     13      -6.6430      1.00000
     14      -6.6186      1.00000
     15      -6.4900      1.00000
     16      -6.4750      1.00000
     17      -6.4698      1.00000
     18      -6.3780      1.00000
     19      -6.3667      1.00000
     20      -6.2269      1.00000
     21      -6.1133      1.00000
     22      -6.0704      1.00000
     23      -6.0169      1.00000
     24      -6.0000      1.00000
     25      -5.9913      1.00000
     26      -5.9344      1.00000
     27      -5.9192      1.00000
     28      -5.9130      1.00000
     29      -5.8368      1.00000
     30      -5.8256      1.00000
     31      -5.7379      1.00000
     32      -5.6668      1.00000
     33      -5.6375      1.00000
     34      -5.6162      1.00000
     35      -5.6070      1.00000
     36      -5.5843      1.00000
     37      -5.5782      1.00000
     38      -5.5715      1.00000
     39      -5.4625      1.00000
     40      -5.4534      1.00000
     41      -5.3663      1.00000
     42      -5.3300      1.00000
     43      -5.1923      1.00000
     44      -5.1670      1.00000
     45      -5.1314      1.00000
     46      -5.1262      1.00000
     47      -5.0812      1.00000
     48      -5.0611      1.00000
     49      -4.9829      1.00000
     50      -4.9486      1.00000
     51      -4.8977      1.00000
     52      -4.8270      1.00000
     53      -4.8248      1.00000
     54      -4.7654      1.00000
     55      -4.7558      1.00000
     56      -4.7509      1.00000
     57      -4.6901      1.00000
     58      -4.6277      1.00000
     59      -4.6221      1.00000
     60      -4.6015      1.00000
     61      -4.5912      1.00000
     62      -4.5674      1.00000
     63      -4.5204      1.00000
     64      -4.4605      1.00000
     65      -4.1653      1.00000
     66      -3.6738      1.00000
     67      -3.2846      0.99999
     68      -2.4166      0.00000
     69      -1.9046      0.00000
     70      -1.0048      0.00000
     71      -0.8997      0.00000
     72       0.2891      0.00000
     73       0.5571      0.00000
     74       0.7977      0.00000
     75       1.8480      0.00000
     76       1.9975      0.00000
     77       2.1141      0.00000
     78       3.3738      0.00000
     79       3.4034      0.00000
     80       3.7237      0.00000
     81       3.7900      0.00000
     82       4.1260      0.00000
     83       4.3567      0.00000
     84       4.4324      0.00000
     85       4.4367      0.00000
     86       4.6050      0.00000
     87       4.7118      0.00000
     88       4.7195      0.00000
     89       4.9976      0.00000
     90       5.0742      0.00000
     91       5.3256      0.00000
     92       5.5737      0.00000
     93       5.7197      0.00000
     94       5.7641      0.00000
     95       5.8003      0.00000
     96       5.8873      0.00000
 Fermi energy:        -2.9815568485

 spin component 2

 k-point     1 :       0.0000    0.0000    0.0000
  band No.  band energies     occupation 
      1     -11.5643      1.00000
      2      -9.5692      1.00000
      3      -8.1154      1.00000
      4      -7.6931      1.00000
      5      -7.6931      1.00000
      6      -7.6922      1.00000
      7      -7.4664      1.00000
      8      -7.4664      1.00000
      9      -7.4570      1.00000
     10      -7.0835      1.00000
     11      -7.0829      1.00000
     12      -7.0829      1.00000
     13      -7.0195      1.00000
     14      -7.0195      1.00000
     15      -7.0082      1.00000
     16      -6.3600      1.00000
     17      -6.3600      1.00000
     18      -6.3456      1.00000
     19      -6.0278      1.00000
     20      -6.0255      1.00000
     21      -6.0255      1.00000
     22      -5.9695      1.00000
     23      -5.9551      1.00000
     24      -5.9551      1.00000
     25      -5.8889      1.00000
     26      -5.7138      1.00000
     27      -5.7138      1.00000
     28      -5.7078      1.00000
     29      -5.7078      1.00000
     30      -5.6989      1.00000
     31      -5.5820      1.00000
     32      -5.5820      1.00000
     33      -5.5271      1.00000
     34      -5.4548      1.00000
     35      -5.4548      1.00000
     36      -5.0840      1.00000
     37      -5.0840      1.00000
     38      -5.0507      1.00000
     39      -5.0485      1.00000
     40      -5.0485      1.00000
     41      -5.0193      1.00000
     42      -5.0193      1.00000
     43      -4.9872      1.00000
     44      -4.8666      1.00000
     45      -4.7651      1.00000
     46      -4.7651      1.00000
     47      -4.6522      1.00000
     48      -4.6522      1.00000
     49      -4.6409      1.00000
     50      -4.5798      1.00000
     51      -4.5798      1.00000
     52      -4.5601      1.00000
     53      -4.5601      1.00000
     54      -4.5597      1.00000
     55      -4.5557      1.00000
     56      -4.5528      1.00000
     57      -4.5528      1.00000
     58      -4.3325      1.00000
     59      -4.3325      1.00000
     60      -4.3237      1.00000
     61      -4.3092      1.00000
     62      -4.3092      1.00000
     63      -4.2706      1.00000
     64      -3.5836      1.00000
     65      -2.8934      0.03683
     66      -2.8894      0.03188
     67      -2.8894      0.03187
     68      -1.7786      0.00000
     69      -1.7730      0.00000
     70      -1.7730      0.00000
     71      -1.6820      0.00000
     72      -1.3648      0.00000
     73      -1.3527      0.00000
     74      -1.3527      0.00000
     75       1.5521      0.00000
     76       1.5677      0.00000
     77       1.5677      0.00000
     78       1.6962      0.00000
     79       2.2739      0.00000
     80       2.3744      0.00000
     81       2.5953      0.00000
     82       2.8030      0.00000
     83       2.8030      0.00000
     84       2.9699      0.00000
     85       3.1711      0.00000
     86       3.5755      0.00000
     87       3.5755      0.00000
     88       3.6277      0.00000
     89       3.7337      0.00000
     90       4.4021      0.00000
     91       4.8333      0.00000
     92       5.1860      0.00000
     93       6.0422      0.00000
     94       6.0422      0.00000
     95       6.2610      0.00000
     96       6.3298      0.00000

 k-point     2 :       0.2000    0.0000    0.0000
  band No.  band energies     occupation 
      1     -11.2477      1.00000
      2      -9.2736      1.00000
      3      -7.9776      1.00000
      4      -7.8809      1.00000
      5      -7.6097      1.00000
      6      -7.6088      1.00000
      7      -7.4727      1.00000
      8      -7.3640      1.00000
      9      -7.3580      1.00000
     10      -7.0908      1.00000
     11      -7.0224      1.00000
     12      -7.0219      1.00000
     13      -6.8705      1.00000
     14      -6.8534      1.00000
     15      -6.8448      1.00000
     16      -6.3576      1.00000
     17      -6.3485      1.00000
     18      -6.3327      1.00000
     19      -6.1175      1.00000
     20      -5.9870      1.00000
     21      -5.9763      1.00000
     22      -5.9672      1.00000
     23      -5.9663      1.00000
     24      -5.9459      1.00000
     25      -5.8764      1.00000
     26      -5.8544      1.00000
     27      -5.8489      1.00000
     28      -5.6978      1.00000
     29      -5.6758      1.00000
     30      -5.6341      1.00000
     31      -5.6312      1.00000
     32      -5.6206      1.00000
     33      -5.5565      1.00000
     34      -5.5409      1.00000
     35      -5.4739      1.00000
     36      -5.2355      1.00000
     37      -5.2086      1.00000
     38      -5.2012      1.00000
     39      -5.1736      1.00000
     40      -5.1068      1.00000
     41      -5.0766      1.00000
     42      -5.0407      1.00000
     43      -5.0391      1.00000
     44      -5.0113      1.00000
     45      -4.9090      1.00000
     46      -4.8432      1.00000
     47      -4.8349      1.00000
     48      -4.7731      1.00000
     49      -4.7443      1.00000
     50      -4.7336      1.00000
     51      -4.7188      1.00000
     52      -4.7141      1.00000
     53      -4.6670      1.00000
     54      -4.6513      1.00000
     55      -4.5989      1.00000
     56      -4.5709      1.00000
     57      -4.5548      1.00000
     58      -4.5307      1.00000
     59      -4.4629      1.00000
     60      -4.4552      1.00000
     61      -4.4442      1.00000
     62      -4.4115      1.00000
     63      -4.3016      1.00000
     64      -4.2038      1.00000
     65      -3.3303      1.00000
     66      -3.0548      0.93767
     67      -2.9614      0.32173
     68      -2.9611      0.31923
     69      -1.8718      0.00000
     70      -1.8409      0.00000
     71      -1.4231      0.00000
     72      -0.5702      0.00000
     73      -0.3545      0.00000
     74      -0.3219      0.00000
     75       1.9018      0.00000
     76       1.9315      0.00000
     77       1.9934      0.00000
     78       2.2700      0.00000
     79       2.5571      0.00000
     80       2.6204      0.00000
     81       2.8145      0.00000
     82       2.8616      0.00000
     83       2.9837      0.00000
     84       3.2649      0.00000
     85       3.5202      0.00000
     86       3.9642      0.00000
     87       4.0669      0.00000
     88       4.1805      0.00000
     89       4.3143      0.00000
     90       4.8357      0.00000
     91       5.1206      0.00000
     92       5.3934      0.00000
     93       5.6491      0.00000
     94       5.8098      0.00000
     95       6.2874      0.00000
     96       6.5895      0.00000

 k-point     3 :       0.4000    0.0000    0.0000
  band No.  band energies     occupation 
      1     -10.3405      1.00000
      2      -9.0414      1.00000
      3      -8.4829      1.00000
      4      -7.6914      1.00000
      5      -7.4190      1.00000
      6      -7.4179      1.00000
      7      -7.3186      1.00000
      8      -7.1499      1.00000
      9      -7.1436      1.00000
     10      -7.0153      1.00000
     11      -6.8450      1.00000
     12      -6.8444      1.00000
     13      -6.6095      1.00000
     14      -6.5856      1.00000
     15      -6.5764      1.00000
     16      -6.3690      1.00000
     17      -6.3347      1.00000
     18      -6.3011      1.00000
     19      -6.2882      1.00000
     20      -6.2351      1.00000
     21      -6.2232      1.00000
     22      -6.2118      1.00000
     23      -5.9874      1.00000
     24      -5.9599      1.00000
     25      -5.8068      1.00000
     26      -5.7901      1.00000
     27      -5.7849      1.00000
     28      -5.7206      1.00000
     29      -5.7153      1.00000
     30      -5.6932      1.00000
     31      -5.6437      1.00000
     32      -5.5996      1.00000
     33      -5.5935      1.00000
     34      -5.5398      1.00000
     35      -5.5311      1.00000
     36      -5.5246      1.00000
     37      -5.4973      1.00000
     38      -5.4591      1.00000
     39      -5.4529      1.00000
     40      -5.4403      1.00000
     41      -5.4279      1.00000
     42      -5.2889      1.00000
     43      -5.1881      1.00000
     44      -5.1800      1.00000
     45      -5.1607      1.00000
     46      -5.1332      1.00000
     47      -5.0701      1.00000
     48      -5.0548      1.00000
     49      -5.0176      1.00000
     50      -4.9939      1.00000
     51      -4.8703      1.00000
     52      -4.8624      1.00000
     53      -4.8201      1.00000
     54      -4.8044      1.00000
     55      -4.7984      1.00000
     56      -4.7924      1.00000
     57      -4.7495      1.00000
     58      -4.6035      1.00000
     59      -4.5618      1.00000
     60      -4.5563      1.00000
     61      -4.5381      1.00000
     62      -4.5086      1.00000
     63      -4.4718      1.00000
     64      -4.4526      1.00000
     65      -3.6351      1.00000
     66      -2.9794      0.47992
     67      -2.9638      0.34135
     68      -2.6639      0.00001
     69      -1.8738      0.00000
     70      -1.7784      0.00000
     71      -1.6680      0.00000
     72      -0.4541      0.00000
     73       0.6066      0.00000
     74       0.6782      0.00000
     75       1.1923      0.00000
     76       2.7915      0.00000
     77       2.9239      0.00000
     78       2.9379      0.00000
     79       3.3960      0.00000
     80       3.5301      0.00000
     81       3.8069      0.00000
     82       3.9564      0.00000
     83       3.9843      0.00000
     84       4.1664      0.00000
     85       4.4383      0.00000
     86       4.7432      0.00000
     87       4.8530      0.00000
     88       4.8685      0.00000
     89       4.9059      0.00000
     90       5.0202      0.00000
     91       5.2904      0.00000
     92       5.5126      0.00000
     93       5.5987      0.00000
     94       5.6018      0.00000
     95       5.7690      0.00000
     96       5.9424      0.00000

 k-point     4 :       0.4000    0.2000    0.0000
  band No.  band energies     occupation 
      1     -10.6339      1.00000
      2      -8.7235      1.00000
      3      -8.2467      1.00000
      4      -8.2403      1.00000
      5      -7.4685      1.00000
      6      -7.4154      1.00000
      7      -7.4116      1.00000
      8      -7.2109      1.00000
      9      -7.1034      1.00000
     10      -6.9570      1.00000
     11      -6.9529      1.00000
     12      -6.8522      1.00000
     13      -6.6499      1.00000
     14      -6.6477      1.00000
     15      -6.6301      1.00000
     16      -6.3623      1.00000
     17      -6.3609      1.00000
     18      -6.3313      1.00000
     19      -6.3067      1.00000
     20      -6.1671      1.00000
     21      -6.1218      1.00000
     22      -6.0231      1.00000
     23      -6.0217      1.00000
     24      -6.0191      1.00000
     25      -5.8583      1.00000
     26      -5.8071      1.00000
     27      -5.7990      1.00000
     28      -5.7566      1.00000
     29      -5.7347      1.00000
     30      -5.6847      1.00000
     31      -5.6743      1.00000
     32      -5.6394      1.00000
     33      -5.6337      1.00000
     34      -5.5586      1.00000
     35      -5.4306      1.00000
     36      -5.4111      1.00000
     37      -5.3957      1.00000
     38      -5.3515      1.00000
     39      -5.3396      1.00000
     40      -5.3051      1.00000
     41      -5.2731      1.00000
     42      -5.2592      1.00000
     43      -5.2381      1.00000
     44      -5.1591      1.00000
     45      -5.1076      1.00000
     46      -5.0788      1.00000
     47      -5.0480      1.00000
     48      -5.0043      1.00000
     49      -4.9926      1.00000
     50      -4.9872      1.00000
     51      -4.8898      1.00000
     52      -4.7973      1.00000
     53      -4.7825      1.00000
     54      -4.7220      1.00000
     55      -4.6865      1.00000
     56      -4.6522      1.00000
     57      -4.6056      1.00000
     58      -4.5999      1.00000
     59      -4.5841      1.00000
     60      -4.5713      1.00000
     61      -4.5699      1.00000
     62      -4.5373      1.00000
     63      -4.2316      1.00000
     64      -4.2307      1.00000
     65      -3.9044      1.00000
     66      -3.5711      1.00000
     67      -3.4975      1.00000
     68      -2.6529      0.00001
     69      -1.1827      0.00000
     70      -1.1231      0.00000
     71      -1.0285      0.00000
     72      -0.5194      0.00000
     73      -0.4801      0.00000
     74       0.2009      0.00000
     75       2.0830      0.00000
     76       2.2317      0.00000
     77       2.2426      0.00000
     78       2.6118      0.00000
     79       3.1821      0.00000
     80       3.3315      0.00000
     81       3.5201      0.00000
     82       3.7120      0.00000
     83       3.8827      0.00000
     84       4.0452      0.00000
     85       4.1487      0.00000
     86       4.3089      0.00000
     87       4.5610      0.00000
     88       4.6504      0.00000
     89       5.0398      0.00000
     90       5.3663      0.00000
     91       5.5439      0.00000
     92       5.6794      0.00000
     93       5.8172      0.00000
     94       5.9508      0.00000
     95       6.0709      0.00000
     96       6.1631      0.00000

 k-point     5 :      -0.4000    0.2000    0.0000
  band No.  band energies     occupation 
      1      -9.5109      1.00000
      2      -9.5039      1.00000
      3      -8.3417      1.00000
      4      -7.8758      1.00000
      5      -7.8720      1.00000
      6      -7.3257      1.00000
      7      -6.9480      1.00000
      8      -6.9468      1.00000
      9      -6.9173      1.00000
     10      -6.9057      1.00000
     11      -6.7430      1.00000
     12      -6.7013      1.00000
     13      -6.6430      1.00000
     14      -6.6187      1.00000
     15      -6.4900      1.00000
     16      -6.4751      1.00000
     17      -6.4698      1.00000
     18      -6.3780      1.00000
     19      -6.3668      1.00000
     20      -6.2269      1.00000
     21      -6.1134      1.00000
     22      -6.0704      1.00000
     23      -6.0169      1.00000
     24      -6.0001      1.00000
     25      -5.9914      1.00000
     26      -5.9344      1.00000
     27      -5.9193      1.00000
     28      -5.9130      1.00000
     29      -5.8368      1.00000
     30      -5.8257      1.00000
     31      -5.7380      1.00000
     32      -5.6669      1.00000
     33      -5.6376      1.00000
     34      -5.6162      1.00000
     35      -5.6070      1.00000
     36      -5.5843      1.00000
     37      -5.5783      1.00000
     38      -5.5716      1.00000
     39      -5.4625      1.00000
     40      -5.4534      1.00000
     41      -5.3663      1.00000
     42      -5.3300      1.00000
     43      -5.1923      1.00000
     44      -5.1670      1.00000
     45      -5.1315      1.00000
     46      -5.1262      1.00000
     47      -5.0812      1.00000
     48      -5.0611      1.00000
     49      -4.9829      1.00000
     50      -4.9486      1.00000
     51      -4.8977      1.00000
     52      -4.8270      1.00000
     53      -4.8249      1.00000
     54      -4.7655      1.00000
     55      -4.7558      1.00000
     56      -4.7510      1.00000
     57      -4.6900      1.00000
     58      -4.6277      1.00000
     59      -4.6221      1.00000
     60      -4.6015      1.00000
     61      -4.5912      1.00000
     62      -4.5675      1.00000
     63      -4.5204      1.00000
     64      -4.4606      1.00000
     65      -4.1653      1.00000
     66      -3.6732      1.00000
     67      -3.2834      0.99999
     68      -2.4167      0.00000
     69      -1.9038      0.00000
     70      -1.0047      0.00000
     71      -0.8998      0.00000
     72       0.2890      0.00000
     73       0.5571      0.00000
     74       0.7980      0.00000
     75       1.8480      0.00000
     76       1.9974      0.00000
     77       2.1141      0.00000
     78       3.3742      0.00000
     79       3.4035      0.00000
     80       3.7246      0.00000
     81       3.7904      0.00000
     82       4.1322      0.00000
     83       4.3683      0.00000
     84       4.4403      0.00000
     85       4.4453      0.00000
     86       4.6055      0.00000
     87       4.7171      0.00000
     88       4.7259      0.00000
     89       5.0039      0.00000
     90       5.0818      0.00000
     91       5.3297      0.00000
     92       5.5779      0.00000
     93       5.7272      0.00000
     94       5.7711      0.00000
     95       5.8065      0.00000
     96       5.8898      0.00000


--------------------------------------------------------------------------------------------------------


 soft charge-density along one line, spin component           1
         0         1         2         3         4         5         6         7         8         9
 total charge-density along one line
 
 soft charge-density along one line, spin component           2
         0         1         2         3         4         5         6         7         8         9
 total charge-density along one line
 
 pseudopotential strength for first ion, spin component:           1
-10.402  -0.001  -0.003  -0.004   0.000   0.947   0.001   0.002
 -0.001 -10.367  -0.001   0.003  -0.003   0.001   0.919   0.001
 -0.003  -0.001 -10.362  -0.002  -0.002   0.002   0.001   0.914
 -0.004   0.003  -0.002 -10.363  -0.001   0.003  -0.002   0.002
  0.000  -0.003  -0.002  -0.001 -10.402  -0.000   0.002   0.001
  0.947   0.001   0.002   0.003  -0.000   6.323  -0.001  -0.002
  0.001   0.919   0.001  -0.002   0.002  -0.001   6.343  -0.001
  0.002   0.001   0.914   0.002   0.001  -0.002  -0.001   6.346
  0.003  -0.002   0.002   0.916   0.001  -0.002   0.002  -0.001
 -0.000   0.002   0.001   0.001   0.947   0.000  -0.001  -0.001
 -0.001   0.000  -0.007   0.001  -0.000   0.000  -0.000   0.002
 -0.001   0.001  -0.014   0.001  -0.001   0.001  -0.000   0.004
  0.001  -0.007  -0.000   0.000  -0.001  -0.001   0.008   0.000
  0.000   0.001  -0.006   0.001   0.000  -0.000  -0.001   0.007
  0.001   0.000  -0.001  -0.007   0.001  -0.000  -0.000   0.000
  0.002  -0.008  -0.001   0.000  -0.001  -0.001   0.010   0.000
  0.000   0.001  -0.007   0.002   0.000  -0.000  -0.001   0.009
  0.001   0.000  -0.001  -0.008   0.002  -0.000  -0.000   0.001
 pseudopotential strength for first ion, spin component:           2
-10.402  -0.001  -0.003  -0.004   0.000   0.947   0.001   0.002
 -0.001 -10.367  -0.001   0.003  -0.003   0.001   0.919   0.001
 -0.003  -0.001 -10.362  -0.002  -0.002   0.002   0.001   0.914
 -0.004   0.003  -0.002 -10.363  -0.001   0.003  -0.002   0.002
  0.000  -0.003  -0.002  -0.001 -10.402  -0.000   0.002   0.001
  0.947   0.001   0.002   0.003  -0.000   6.323  -0.001  -0.002
  0.001   0.919   0.001  -0.002   0.002  -0.001   6.343  -0.001
  0.002   0.001   0.914   0.002   0.001  -0.002  -0.001   6.346
  0.003  -0.002   0.002   0.916   0.001  -0.002   0.002  -0.001
 -0.000   0.002   0.001   0.001   0.947   0.000  -0.001  -0.001
 -0.001   0.000  -0.007   0.001  -0.000   0.000  -0.000   0.002
 -0.001   0.001  -0.014   0.001  -0.001   0.001  -0.000   0.004
  0.001  -0.007  -0.000   0.000  -0.001  -0.001   0.008   0.000
  0.000   0.001  -0.006   0.001   0.000  -0.000  -0.001   0.007
  0.001   0.000  -0.001  -0.007   0.001  -0.000  -0.000   0.000
  0.002  -0.008  -0.001   0.000  -0.001  -0.001   0.010   0.000
  0.000   0.001  -0.007   0.002   0.000  -0.000  -0.001   0.009
  0.001   0.000  -0.001  -0.008   0.002  -0.000  -0.000   0.001
 total augmentation occupancy for first ion, spin component:           1
  1.907  -0.000  -0.000  -0.004   0.000  -0.017   0.000   0.000   0.004  -0.000  -0.002  -0.001  -0.001   0.001   0.004   0.001
 -0.000   1.923  -0.002   0.001  -0.003   0.000  -0.033   0.000  -0.000   0.004  -0.004   0.000   0.008   0.001   0.001  -0.008
 -0.000  -0.002   1.921  -0.003  -0.000   0.000   0.000  -0.028   0.001   0.000   0.004   0.014  -0.001   0.052  -0.001  -0.000
 -0.004   0.001  -0.003   1.925  -0.000   0.004  -0.000   0.001  -0.034   0.000  -0.007   0.000   0.001   0.002   0.009   0.000
  0.000  -0.003  -0.000  -0.000   1.906  -0.000   0.004   0.000   0.000  -0.017  -0.001  -0.000   0.005   0.001  -0.001  -0.001
 -0.017   0.000   0.000   0.004  -0.000   0.014  -0.000  -0.000   0.000   0.000   0.000   0.000   0.000  -0.000   0.003  -0.000
  0.000  -0.033   0.000  -0.000   0.004  -0.000   0.010  -0.000   0.000   0.000   0.001   0.000   0.017  -0.000  -0.000  -0.001
  0.000   0.000  -0.028   0.001   0.000  -0.000  -0.000   0.013  -0.000  -0.000  -0.045   0.002   0.000   0.022   0.000  -0.000
  0.004  -0.000   0.001  -0.034   0.000   0.000   0.000  -0.000   0.010  -0.000   0.002   0.000  -0.000  -0.000   0.017   0.000
 -0.000   0.004   0.000   0.000  -0.017   0.000   0.000  -0.000  -0.000   0.014   0.000   0.000   0.003  -0.000   0.000  -0.000
 -0.002  -0.004   0.004  -0.007  -0.001   0.000   0.001  -0.045   0.002   0.000   1.704  -0.133  -0.002   0.128  -0.003   0.000
 -0.001   0.000   0.014   0.000  -0.000   0.000   0.000   0.002   0.000   0.000  -0.133   0.016  -0.000  -0.023  -0.000  -0.000
 -0.001   0.008  -0.001   0.001   0.005   0.000   0.017   0.000  -0.000   0.003  -0.002  -0.000   0.209   0.001   0.002  -0.013
  0.001   0.001   0.052   0.002   0.001  -0.000  -0.000   0.022  -0.000  -0.000   0.128  -0.023   0.001   0.128   0.002  -0.000
  0.004   0.001  -0.001   0.009  -0.001   0.003  -0.000   0.000   0.017   0.000  -0.003  -0.000   0.002   0.002   0.211  -0.000
  0.001  -0.008  -0.000   0.000  -0.001  -0.000  -0.001  -0.000   0.000  -0.000   0.000  -0.000  -0.013  -0.000  -0.000   0.001
  0.000   0.000  -0.012   0.001   0.000   0.000  -0.000  -0.001  -0.000   0.000  -0.019   0.002  -0.000  -0.008  -0.000  -0.000
 -0.000   0.000  -0.000  -0.008   0.001  -0.000   0.000  -0.000  -0.001  -0.000   0.000  -0.000  -0.000  -0.000  -0.013  -0.000
 total augmentation occupancy for first ion, spin component:           2
 -0.000   0.000   0.000   0.000   0.000   0.000  -0.000  -0.000  -0.000  -0.000   0.000   0.000  -0.000  -0.000  -0.000   0.000
  0.000  -0.000   0.000   0.000   0.000  -0.000   0.000  -0.000  -0.000  -0.000   0.000   0.000   0.000  -0.000  -0.000   0.000
  0.000   0.000  -0.000   0.000   0.000  -0.000  -0.000   0.000  -0.000  -0.000  -0.000  -0.000   0.000   0.000   0.000  -0.000
  0.000   0.000   0.000  -0.000   0.000  -0.000  -0.000  -0.000   0.000  -0.000   0.000   0.000  -0.000  -0.000   0.000  -0.000
  0.000   0.000   0.000   0.000  -0.000  -0.000  -0.000  -0.000  -0.000   0.000   0.000   0.000  -0.000  -0.000  -0.000  -0.000
  0.000  -0.000  -0.000  -0.000  -0.000  -0.000   0.000   0.000   0.000   0.000  -0.000  -0.000   0.000   0.000   0.000   0.000
 -0.000   0.000  -0.000  -0.000  -0.000   0.000  -0.000   0.000  -0.000   0.000  -0.000  -0.000  -0.000   0.000   0.000  -0.000
 -0.000  -0.000   0.000  -0.000  -0.000   0.000   0.000  -0.000   0.000   0.000   0.000   0.000  -0.000  -0.000  -0.000  -0.000
 -0.000  -0.000  -0.000   0.000  -0.000   0.000  -0.000   0.000  -0.000   0.000  -0.000  -0.000   0.000   0.000  -0.000  -0.000
 -0.000  -0.000  -0.000  -0.000   0.000   0.000   0.000   0.000   0.000  -0.000  -0.000  -0.000   0.000   0.000   0.000  -0.000
  0.000   0.000  -0.000   0.000   0.000  -0.000  -0.000   0.000  -0.000  -0.000  -0.000  -0.000   0.000   0.000   0.000   0.000
  0.000   0.000  -0.000   0.000   0.000  -0.000  -0.000   0.000  -0.000  -0.000  -0.000  -0.000   0.000   0.000   0.000  -0.000
 -0.000   0.000   0.000  -0.000  -0.000   0.000  -0.000  -0.000   0.000   0.000   0.000   0.000  -0.000  -0.000  -0.000   0.000
 -0.000  -0.000   0.000  -0.000  -0.000   0.000   0.000  -0.000   0.000   0.000   0.000   0.000  -0.000  -0.000  -0.000   0.000
 -0.000  -0.000   0.000   0.000  -0.000   0.000   0.000  -0.000  -0.000   0.000   0.000   0.000  -0.000  -0.000  -0.000  -0.000
  0.000   0.000  -0.000  -0.000  -0.000   0.000  -0.000  -0.000  -0.000  -0.000   0.000  -0.000   0.000   0.000  -0.000  -0.000
  0.000  -0.000   0.000  -0.000   0.000   0.000   0.000   0.000   0.000   0.000  -0.000   0.000   0.000  -0.000   0.000  -0.000
 -0.000  -0.000  -0.000   0.000   0.000  -0.000  -0.000  -0.000  -0.000   0.000   0.000  -0.000  -0.000   0.000  -0.000   0.000


------------------------ aborting loop because EDIFF is reached ----------------------------------------


    CHARGE:  cpu time      0.1052: real time      0.1060
    FORLOC:  cpu time      0.0022: real time      0.0022
    FORNL :  cpu time      0.2370: real time      0.2392
    STRESS:  cpu time      1.5623: real time      1.5765
    FORCOR:  cpu time      0.0378: real time      0.0379
    FORHAR:  cpu time      0.0044: real time      0.0044
    MIXING:  cpu time      0.0019: real time      0.0019
    OFIELD:  cpu time      0.0000: real time      0.0000

 ---------------------------------------------------------------------------------------------

         DFTD3 V3.0 Rev 1        
 Edisp (eV)   -4.66519

 E6    (eV) :    -2.5796
 E8    (eV) :    -2.0856
 % E8        : 44.70
    FORVDW:  cpu time      0.0098: real time      0.0098

  FORCE on cell =-STRESS in cart. coord.  units (eV):
  Direction    XX          YY          ZZ          XY          YZ          ZX
  --------------------------------------------------------------------------------------
  Alpha Z   137.59429   137.59429   137.59429
  Ewald  132142.39395132142.39395************    -0.00000    -0.00000    -0.00000
  Hartree135974.39188135974.39188************     0.00000    -0.00000    -0.00000
  E(xc)    -772.08313  -772.08300  -773.93588    -0.00012     0.00000     0.00000
  Local  ************************272788.76731     0.00202    -0.00000    -0.00000
  n-local  -255.81408  -270.11952  -269.38950    -8.79986    -0.09444     0.03492
  augment  1132.78670  1132.78880  1141.71330    -0.00182     0.00001     0.00002
  Kinetic  1077.10475  1076.39929  1088.80696    -0.71505    -0.77889     0.88508
  Fock        0.00000     0.00000     0.00000     0.00000     0.00000     0.00000
  vdW        -4.93738    -4.93738    -2.52136     0.00000    -0.00000    -0.00000
  -------------------------------------------------------------------------------------
  Total      -8.32676    -8.32676    -6.65509    -0.00000     0.00000     0.00000
  in kB     -17.24689   -17.24689   -13.78442    -0.00000     0.00000     0.00000
  external pressure =      -16.09 kB  Pullay stress =        0.00 kB


 VOLUME and BASIS-vectors are now :
 -----------------------------------------------------------------------------
  energy-cutoff  :      600.00
  volume of cell :      773.53
      direct lattice vectors                 reciprocal lattice vectors
     5.112382028  0.000000000  0.000000000     0.195603536 -0.112931754  0.000000000
     2.556191014  4.427452710  0.000000000     0.000000000  0.225863508  0.000000000
     0.000000000  0.000000000 34.174242446     0.000000000  0.000000000  0.029261804

  length of vectors
     5.112382028  5.112382028 34.174242446     0.225863508  0.225863508  0.029261804


 FORCES acting on ions
    electron-ion (+dipol)            ewald-force                    non-local-force                 convergence-correction
 -----------------------------------------------------------------------------------------------
   -.243E+00 -.140E+00 0.317E+04   0.114E-01 0.660E-02 -.317E+04   0.198E+00 0.114E+00 -.170E+01   -.614E-03 -.355E-03 0.646E-02
   0.243E+00 -.140E+00 0.317E+04   -.114E-01 0.660E-02 -.317E+04   -.198E+00 0.114E+00 -.170E+01   0.614E-03 -.355E-03 0.646E-02
   0.267E-05 0.281E+00 0.317E+04   -.417E-08 -.132E-01 -.317E+04   0.306E-17 -.228E+00 -.170E+01   -.194E-08 0.710E-03 0.646E-02
   0.255E-05 0.147E-05 0.317E+04   0.502E-08 0.461E-08 -.317E+04   -.559E-17 0.328E-17 -.266E+01   0.307E-09 0.177E-09 0.987E-02
   -.243E-05 -.745E+00 0.328E+02   -.579E-08 0.255E+00 -.325E+02   -.156E-17 0.457E+00 -.329E+00   0.178E-07 -.119E-02 0.735E-02
   -.229E-05 -.132E-05 0.321E+02   0.456E-08 -.820E-08 -.322E+02   -.134E-17 -.417E-19 0.932E-01   -.388E-09 -.224E-09 0.447E-02
   0.645E+00 0.372E+00 0.328E+02   -.221E+00 -.128E+00 -.325E+02   -.396E+00 -.229E+00 -.329E+00   0.103E-02 0.593E-03 0.735E-02
   -.645E+00 0.372E+00 0.328E+02   0.221E+00 -.128E+00 -.325E+02   0.396E+00 -.229E+00 -.329E+00   -.103E-02 0.593E-03 0.735E-02
   -.360E-06 -.209E-06 -.310E+04   -.618E-08 -.249E-08 0.310E+04   -.495E-17 -.294E-17 0.598E+00   -.238E-09 -.137E-09 0.130E-01
   -.209E-06 -.846E-02 -.311E+04   0.505E-08 -.823E-08 0.311E+04   -.231E-17 0.177E-01 0.341E+01   -.236E-08 0.367E-04 0.103E-01
   -.733E-02 0.423E-02 -.311E+04   -.497E-08 0.803E-08 0.311E+04   0.153E-01 -.886E-02 0.341E+01   0.317E-04 -.183E-04 0.103E-01
   0.733E-02 0.423E-02 -.311E+04   0.615E-08 0.222E-08 0.311E+04   -.153E-01 -.886E-02 0.341E+01   -.317E-04 -.183E-04 0.103E-01
   -.630E-07 -.364E-07 -.391E+03   -.639E-10 -.367E-10 0.390E+03   0.202E-19 -.133E-19 -.442E+00   0.268E-10 0.155E-10 -.393E-02
 -----------------------------------------------------------------------------------------------
   0.430E-06 0.252E-06 -.184E+01   0.994E-13 -.356E-13 0.568E-13   0.555E-16 -.133E-19 0.174E+01   -.151E-08 -.870E-09 0.959E-01
 
 
 POSITION                                       TOTAL-FORCE (eV/Angst)
 -----------------------------------------------------------------------------------
      1.27810      0.73791     15.00000        -0.034707     -0.020038      0.117693
      3.83429      0.73791     15.00000         0.034707     -0.020038      0.117693
      2.55619      2.95164     15.00000         0.000000      0.040076      0.117693
      5.11238      2.95164     15.00000         0.000000      0.000000      0.141269
      5.11238      1.47582     17.08712         0.000000     -0.034089      0.050477
      2.55619      1.47582     17.08712         0.000000      0.000000      0.084741
      6.39048      3.68954     17.08712         0.029522      0.017045      0.050477
      3.83429      3.68954     17.08712        -0.029522      0.017045      0.050477
      0.00000      0.00000     19.17424         0.000000      0.000000      1.084931
      2.55619      0.00000     19.17424         0.000000      0.009287     -0.049946
      1.27810      2.21373     19.17424         0.008043     -0.004644     -0.049946
      3.83429      2.21373     19.17424        -0.008043     -0.004644     -0.049946
      0.00000      0.00000     21.59128         0.000000      0.000000     -1.665611
 -----------------------------------------------------------------------------------
    total drift:                                0.000000      0.000000     -0.004409


--------------------------------------------------------------------------------------------------------



  FREE ENERGIE OF THE ION-ELECTRON SYSTEM (eV)
  ---------------------------------------------------
  free  energy   TOTEN  =       -47.15932064 eV

  energy  without entropy=      -47.12182709  energy(sigma->0) =      -47.14057386
 
 d Force = 0.2084100E+02[-0.243E+01, 0.441E+02]  d Energy = 0.3535636E+01 0.173E+02
 d Force = 0.6629519E+03[ 0.568E+03, 0.757E+03]  d Ewald  = 0.6267511E+03 0.362E+02


--------------------------------------------------------------------------------------------------------


    POTLOK:  cpu time      0.0499: real time      0.0525


--------------------------------------------------------------------------------------------------------


 Steepest descent step on ions:
 trial-energy change:   -3.535636  1 .order  -20.840999  -44.111774    2.429777
  (g-gl).g = 0.441E+02      g.g   = 0.441E+02  gl.gl    = 0.000E+00
 g(Force)  = 0.441E+02   g(Stress)= 0.000E+00 ortho     = 0.000E+00
 gamma     =   0.00000
 trial     =   1.00000
 opt step  =   0.94779  (harmonic =   0.94779) maximal distance =1.38263177
 next E    =   -64.528109   (d E  = -20.90442)


--------------------------------------------------------------------------------------------------------


    WAVPRE:  cpu time      0.0046: real time      0.0216
    FEWALD:  cpu time      0.0003: real time      0.0003
    ORTHCH:  cpu time      0.2023: real time      0.2047
     LOOP+:  cpu time     46.1042: real time     46.5853


--------------------------------------- Iteration      3(   1)  ---------------------------------------


    POTLOK:  cpu time      0.0456: real time      0.0461
    SETDIJ:  cpu time      0.0075: real time      0.0079
     EDDAV:  cpu time      2.2823: real time      2.3038
       DOS:  cpu time      0.0011: real time      0.0011
    CHARGE:  cpu time      0.1165: real time      0.1170
    MIXING:  cpu time      0.0009: real time      0.0009
    --------------------------------------------
      LOOP:  cpu time      2.4539: real time      2.4768

 eigenvalue-minimisations  :  1920
 total energy-change (2. order) :-0.1260446E+00  (-0.1602856E+00)
 number of electron     133.0000047 magnetization       0.0000521
 augmentation part       84.3260969 magnetization      -0.0003211

 Broyden mixing:
  rms(total) = 0.16033E-01    rms(broyden)= 0.16029E-01
  rms(prec ) = 0.17173E-01
  weight for this iteration     100.00

 Free energy of the ion-electron system (eV)
  ---------------------------------------------------
  alpha Z        PSCENC =       137.59429322
  Ewald energy   TEWEN  =    123406.23970725
  -Hartree energ DENC   =   -138769.78492132
  -exchange      EXHF   =         0.00000000
  -V(xc)+E(xc)   XCENC  =       535.62767503
  PAW double counting   =     15582.56136872   -16873.62729711
  entropy T*S    EENTRO =        -0.03840227
  eigenvalues    EBANDS =      -765.41000914
  atomic energy  EATOM  =     16704.21750749
  Solvation  Ecorr_sol  =         0.00000000
  ---------------------------------------------------
  free energy    TOTEN  =       -42.62007812 eV

  energy without entropy =      -42.58167585  energy(sigma->0) =      -42.60087698


--------------------------------------------------------------------------------------------------------




--------------------------------------- Iteration      3(   2)  ---------------------------------------


    POTLOK:  cpu time      0.0441: real time      0.0447
    SETDIJ:  cpu time      0.0032: real time      0.0032
     EDDAV:  cpu time      2.8526: real time      2.8804
       DOS:  cpu time      0.0003: real time      0.0003
    CHARGE:  cpu time      0.1076: real time      0.1084
    MIXING:  cpu time      0.0009: real time      0.0009
    --------------------------------------------
      LOOP:  cpu time      3.0087: real time      3.0379

 eigenvalue-minimisations  :  2560
 total energy-change (2. order) :-0.7051295E-03  (-0.1511363E-02)
 number of electron     133.0000047 magnetization       0.0000478
 augmentation part       84.3132188 magnetization      -0.0001246

 Broyden mixing:
  rms(total) = 0.13878E-01    rms(broyden)= 0.13877E-01
  rms(prec ) = 0.15398E-01
  weight for this iteration     100.00

 eigenvalues of (default mixing * dielectric matrix)
  average eigenvalue GAMMA=   0.5610
  0.5610

 Free energy of the ion-electron system (eV)
  ---------------------------------------------------
  alpha Z        PSCENC =       137.59429322
  Ewald energy   TEWEN  =    123406.23970725
  -Hartree energ DENC   =   -138771.81409325
  -exchange      EXHF   =         0.00000000
  -V(xc)+E(xc)   XCENC  =       535.62692359
  PAW double counting   =     15584.10078103   -16875.23096662
  entropy T*S    EENTRO =        -0.03724802
  eigenvalues    EBANDS =      -763.31768795
  atomic energy  EATOM  =     16704.21750749
  Solvation  Ecorr_sol  =         0.00000000
  ---------------------------------------------------
  free energy    TOTEN  =       -42.62078325 eV

  energy without entropy =      -42.58353523  energy(sigma->0) =      -42.60215924


--------------------------------------------------------------------------------------------------------




--------------------------------------- Iteration      3(   3)  ---------------------------------------


    POTLOK:  cpu time      0.0443: real time      0.0448
    SETDIJ:  cpu time      0.0039: real time      0.0039
     EDDAV:  cpu time      2.9170: real time      2.9463
       DOS:  cpu time      0.0009: real time      0.0009
    CHARGE:  cpu time      0.1084: real time      0.1093
    MIXING:  cpu time      0.0009: real time      0.0009
    --------------------------------------------
      LOOP:  cpu time      3.0754: real time      3.1062

 eigenvalue-minimisations  :  2624
 total energy-change (2. order) : 0.3112589E-03  (-0.4501416E-03)
 number of electron     133.0000047 magnetization       0.0000431
 augmentation part       84.3247321 magnetization      -0.0001784

 Broyden mixing:
  rms(total) = 0.93853E-02    rms(broyden)= 0.93842E-02
  rms(prec ) = 0.10140E-01
  weight for this iteration     100.00

 eigenvalues of (default mixing * dielectric matrix)
  average eigenvalue GAMMA=   0.7287
  1.1136  0.3438

 Free energy of the ion-electron system (eV)
  ---------------------------------------------------
  alpha Z        PSCENC =       137.59429322
  Ewald energy   TEWEN  =    123406.23970725
  -Hartree energ DENC   =   -138771.06988873
  -exchange      EXHF   =         0.00000000
  -V(xc)+E(xc)   XCENC  =       535.61680295
  PAW double counting   =     15583.37795490   -16874.41489280
  entropy T*S    EENTRO =        -0.03794587
  eigenvalues    EBANDS =      -764.14401039
  atomic energy  EATOM  =     16704.21750749
  Solvation  Ecorr_sol  =         0.00000000
  ---------------------------------------------------
  free energy    TOTEN  =       -42.62047199 eV

  energy without entropy =      -42.58252612  energy(sigma->0) =      -42.60149905


--------------------------------------------------------------------------------------------------------




--------------------------------------- Iteration      3(   4)  ---------------------------------------


    POTLOK:  cpu time      0.0522: real time      0.0528
    SETDIJ:  cpu time      0.0032: real time      0.0032
     EDDAV:  cpu time      2.6048: real time      2.6310
       DOS:  cpu time      0.0015: real time      0.0015
    CHARGE:  cpu time      0.1049: real time      0.1054
    MIXING:  cpu time      0.0010: real time      0.0010
    --------------------------------------------
      LOOP:  cpu time      2.7676: real time      2.7950

 eigenvalue-minimisations  :  2336
 total energy-change (2. order) : 0.1040127E-03  (-0.7962545E-04)
 number of electron     133.0000047 magnetization       0.0000369
 augmentation part       84.3273199 magnetization      -0.0001663

 Broyden mixing:
  rms(total) = 0.49982E-02    rms(broyden)= 0.49980E-02
  rms(prec ) = 0.53245E-02
  weight for this iteration     100.00

 eigenvalues of (default mixing * dielectric matrix)
  average eigenvalue GAMMA=   0.9126
  1.8974  0.5109  0.3296

 Free energy of the ion-electron system (eV)
  ---------------------------------------------------
  alpha Z        PSCENC =       137.59429322
  Ewald energy   TEWEN  =    123406.23970725
  -Hartree energ DENC   =   -138771.27353700
  -exchange      EXHF   =         0.00000000
  -V(xc)+E(xc)   XCENC  =       535.61595882
  PAW double counting   =     15583.25635695   -16874.28517171
  entropy T*S    EENTRO =        -0.03786954
  eigenvalues    EBANDS =      -763.94761346
  atomic energy  EATOM  =     16704.21750749
  Solvation  Ecorr_sol  =         0.00000000
  ---------------------------------------------------
  free energy    TOTEN  =       -42.62036797 eV

  energy without entropy =      -42.58249843  energy(sigma->0) =      -42.60143320


--------------------------------------------------------------------------------------------------------




--------------------------------------- Iteration      3(   5)  ---------------------------------------


    POTLOK:  cpu time      0.0446: real time      0.0452
    SETDIJ:  cpu time      0.0038: real time      0.0038
     EDDAV:  cpu time      2.3595: real time      2.3832
       DOS:  cpu time      0.0009: real time      0.0009
    --------------------------------------------
      LOOP:  cpu time      2.4088: real time      2.4330

 eigenvalue-minimisations  :  2048
 total energy-change (2. order) : 0.3195318E-04  (-0.2727729E-04)
 number of electron     133.0000047 magnetization       0.0000369
 augmentation part       84.3273199 magnetization      -0.0001663

 Free energy of the ion-electron system (eV)
  ---------------------------------------------------
  alpha Z        PSCENC =       137.59429322
  Ewald energy   TEWEN  =    123406.23970725
  -Hartree energ DENC   =   -138771.97371829
  -exchange      EXHF   =         0.00000000
  -V(xc)+E(xc)   XCENC  =       535.62240948
  PAW double counting   =     15583.44718953   -16874.52753295
  entropy T*S    EENTRO =        -0.03776769
  eigenvalues    EBANDS =      -763.20242407
  atomic energy  EATOM  =     16704.21750749
  Solvation  Ecorr_sol  =         0.00000000
  ---------------------------------------------------
  free energy    TOTEN  =       -42.62033602 eV

  energy without entropy =      -42.58256833  energy(sigma->0) =      -42.60145217


--------------------------------------------------------------------------------------------------------




 average (electrostatic) potential at core
  the test charge radii are     0.9430  0.5201
  (the norm of the test charge is              1.0000)
       1 -73.9814       2 -73.9814       3 -73.9814       4 -74.0108       5 -74.2593
       6 -74.2734       7 -74.2593       8 -74.2593       9 -74.0735      10 -73.9177
      11 -73.9177      12 -73.9177      13 -38.3871
 
 
 
 E-fermi :  -2.9667     XC(G=0):  -3.0318     alpha+bet : -2.4952

 Fermi energy:        -2.9666531164

 spin component 1

 k-point     1 :       0.0000    0.0000    0.0000
  band No.  band energies     occupation 
      1     -11.5497      1.00000
      2      -9.5581      1.00000
      3      -8.1024      1.00000
      4      -7.6772      1.00000
      5      -7.6772      1.00000
      6      -7.6769      1.00000
      7      -7.4518      1.00000
      8      -7.4518      1.00000
      9      -7.4427      1.00000
     10      -7.0687      1.00000
     11      -7.0684      1.00000
     12      -7.0684      1.00000
     13      -7.0068      1.00000
     14      -7.0068      1.00000
     15      -6.9944      1.00000
     16      -6.3480      1.00000
     17      -6.3480      1.00000
     18      -6.3312      1.00000
     19      -6.0145      1.00000
     20      -6.0113      1.00000
     21      -6.0113      1.00000
     22      -5.9549      1.00000
     23      -5.9385      1.00000
     24      -5.9385      1.00000
     25      -5.8877      1.00000
     26      -5.6990      1.00000
     27      -5.6990      1.00000
     28      -5.6938      1.00000
     29      -5.6938      1.00000
     30      -5.6832      1.00000
     31      -5.5689      1.00000
     32      -5.5689      1.00000
     33      -5.5271      1.00000
     34      -5.4396      1.00000
     35      -5.4396      1.00000
     36      -5.0694      1.00000
     37      -5.0694      1.00000
     38      -5.0378      1.00000
     39      -5.0368      1.00000
     40      -5.0368      1.00000
     41      -5.0058      1.00000
     42      -5.0058      1.00000
     43      -4.9718      1.00000
     44      -4.9068      1.00000
     45      -4.7515      1.00000
     46      -4.7515      1.00000
     47      -4.6372      1.00000
     48      -4.6372      1.00000
     49      -4.6249      1.00000
     50      -4.5656      1.00000
     51      -4.5656      1.00000
     52      -4.5484      1.00000
     53      -4.5448      1.00000
     54      -4.5448      1.00000
     55      -4.5395      1.00000
     56      -4.5375      1.00000
     57      -4.5375      1.00000
     58      -4.3186      1.00000
     59      -4.3186      1.00000
     60      -4.3099      1.00000
     61      -4.2979      1.00000
     62      -4.2979      1.00000
     63      -4.2540      1.00000
     64      -3.5806      1.00000
     65      -2.8797      0.03843
     66      -2.8755      0.03304
     67      -2.8755      0.03303
     68      -1.7642      0.00000
     69      -1.7596      0.00000
     70      -1.7596      0.00000
     71      -1.5935      0.00000
     72      -1.3513      0.00000
     73      -1.3390      0.00000
     74      -1.3390      0.00000
     75       1.5563      0.00000
     76       1.5810      0.00000
     77       1.5810      0.00000
     78       1.6984      0.00000
     79       2.3010      0.00000
     80       2.3425      0.00000
     81       2.6574      0.00000
     82       2.8137      0.00000
     83       2.8137      0.00000
     84       2.9806      0.00000
     85       3.1887      0.00000
     86       3.5857      0.00000
     87       3.5857      0.00000
     88       3.6395      0.00000
     89       3.7397      0.00000
     90       4.4541      0.00000
     91       4.8738      0.00000
     92       5.2010      0.00000
     93       6.0450      0.00000
     94       6.0450      0.00000
     95       6.2773      0.00000
     96       6.3488      0.00000

 k-point     2 :       0.2000    0.0000    0.0000
  band No.  band energies     occupation 
      1     -11.2331      1.00000
      2      -9.2625      1.00000
      3      -7.9625      1.00000
      4      -7.8677      1.00000
      5      -7.5941      1.00000
      6      -7.5935      1.00000
      7      -7.4583      1.00000
      8      -7.3492      1.00000
      9      -7.3436      1.00000
     10      -7.0759      1.00000
     11      -7.0077      1.00000
     12      -7.0072      1.00000
     13      -6.8572      1.00000
     14      -6.8407      1.00000
     15      -6.8312      1.00000
     16      -6.3454      1.00000
     17      -6.3353      1.00000
     18      -6.3191      1.00000
     19      -6.1050      1.00000
     20      -5.9749      1.00000
     21      -5.9616      1.00000
     22      -5.9533      1.00000
     23      -5.9523      1.00000
     24      -5.9315      1.00000
     25      -5.8645      1.00000
     26      -5.8389      1.00000
     27      -5.8322      1.00000
     28      -5.6886      1.00000
     29      -5.6607      1.00000
     30      -5.6206      1.00000
     31      -5.6201      1.00000
     32      -5.6077      1.00000
     33      -5.5434      1.00000
     34      -5.5262      1.00000
     35      -5.4608      1.00000
     36      -5.2456      1.00000
     37      -5.1974      1.00000
     38      -5.1881      1.00000
     39      -5.1602      1.00000
     40      -5.0923      1.00000
     41      -5.0696      1.00000
     42      -5.0280      1.00000
     43      -5.0260      1.00000
     44      -4.9966      1.00000
     45      -4.9060      1.00000
     46      -4.8295      1.00000
     47      -4.8206      1.00000
     48      -4.7597      1.00000
     49      -4.7323      1.00000
     50      -4.7174      1.00000
     51      -4.7039      1.00000
     52      -4.6991      1.00000
     53      -4.6530      1.00000
     54      -4.6366      1.00000
     55      -4.5845      1.00000
     56      -4.5619      1.00000
     57      -4.5401      1.00000
     58      -4.5157      1.00000
     59      -4.4498      1.00000
     60      -4.4415      1.00000
     61      -4.4299      1.00000
     62      -4.3970      1.00000
     63      -4.2939      1.00000
     64      -4.2042      1.00000
     65      -3.3226      1.00000
     66      -3.0371      0.93144
     67      -2.9463      0.32018
     68      -2.9461      0.31820
     69      -1.8599      0.00000
     70      -1.8282      0.00000
     71      -1.3605      0.00000
     72      -0.5410      0.00000
     73      -0.3410      0.00000
     74      -0.2975      0.00000
     75       1.8997      0.00000
     76       1.9443      0.00000
     77       2.0011      0.00000
     78       2.2793      0.00000
     79       2.5454      0.00000
     80       2.6458      0.00000
     81       2.8259      0.00000
     82       2.9265      0.00000
     83       2.9952      0.00000
     84       3.2711      0.00000
     85       3.5349      0.00000
     86       3.9963      0.00000
     87       4.0634      0.00000
     88       4.1869      0.00000
     89       4.3237      0.00000
     90       4.8814      0.00000
     91       5.1612      0.00000
     92       5.4155      0.00000
     93       5.6550      0.00000
     94       5.8238      0.00000
     95       6.2961      0.00000
     96       6.6023      0.00000

 k-point     3 :       0.4000    0.0000    0.0000
  band No.  band energies     occupation 
      1     -10.3259      1.00000
      2      -9.0268      1.00000
      3      -8.4713      1.00000
      4      -7.6782      1.00000
      5      -7.4043      1.00000
      6      -7.4029      1.00000
      7      -7.3046      1.00000
      8      -7.1346      1.00000
      9      -7.1292      1.00000
     10      -7.0003      1.00000
     11      -6.8299      1.00000
     12      -6.8286      1.00000
     13      -6.5962      1.00000
     14      -6.5720      1.00000
     15      -6.5618      1.00000
     16      -6.3554      1.00000
     17      -6.3204      1.00000
     18      -6.2890      1.00000
     19      -6.2739      1.00000
     20      -6.2213      1.00000
     21      -6.2092      1.00000
     22      -6.1968      1.00000
     23      -5.9739      1.00000
     24      -5.9460      1.00000
     25      -5.7943      1.00000
     26      -5.7761      1.00000
     27      -5.7708      1.00000
     28      -5.7086      1.00000
     29      -5.7038      1.00000
     30      -5.6804      1.00000
     31      -5.6328      1.00000
     32      -5.5851      1.00000
     33      -5.5771      1.00000
     34      -5.5291      1.00000
     35      -5.5181      1.00000
     36      -5.5175      1.00000
     37      -5.4818      1.00000
     38      -5.4505      1.00000
     39      -5.4445      1.00000
     40      -5.4262      1.00000
     41      -5.4152      1.00000
     42      -5.2884      1.00000
     43      -5.1728      1.00000
     44      -5.1662      1.00000
     45      -5.1481      1.00000
     46      -5.1181      1.00000
     47      -5.0621      1.00000
     48      -5.0414      1.00000
     49      -5.0034      1.00000
     50      -4.9781      1.00000
     51      -4.8689      1.00000
     52      -4.8497      1.00000
     53      -4.8061      1.00000
     54      -4.7913      1.00000
     55      -4.7841      1.00000
     56      -4.7782      1.00000
     57      -4.7353      1.00000
     58      -4.5948      1.00000
     59      -4.5470      1.00000
     60      -4.5427      1.00000
     61      -4.5226      1.00000
     62      -4.4971      1.00000
     63      -4.4561      1.00000
     64      -4.4405      1.00000
     65      -3.6483      1.00000
     66      -2.9655      0.48903
     67      -2.9488      0.34022
     68      -2.6431      0.00001
     69      -1.8578      0.00000
     70      -1.7654      0.00000
     71      -1.6349      0.00000
     72      -0.4093      0.00000
     73       0.6177      0.00000
     74       0.6983      0.00000
     75       1.2362      0.00000
     76       2.7889      0.00000
     77       2.9380      0.00000
     78       2.9525      0.00000
     79       3.3840      0.00000
     80       3.5634      0.00000
     81       3.8814      0.00000
     82       3.9493      0.00000
     83       3.9924      0.00000
     84       4.1772      0.00000
     85       4.4479      0.00000
     86       4.7351      0.00000
     87       4.8800      0.00000
     88       4.8871      0.00000
     89       4.9041      0.00000
     90       5.0761      0.00000
     91       5.3654      0.00000
     92       5.4979      0.00000
     93       5.6096      0.00000
     94       5.6132      0.00000
     95       5.7888      0.00000
     96       5.9757      0.00000

 k-point     4 :       0.4000    0.2000    0.0000
  band No.  band energies     occupation 
      1     -10.6192      1.00000
      2      -8.7122      1.00000
      3      -8.2317      1.00000
      4      -8.2257      1.00000
      5      -7.4549      1.00000
      6      -7.4009      1.00000
      7      -7.3976      1.00000
      8      -7.1954      1.00000
      9      -7.0887      1.00000
     10      -6.9420      1.00000
     11      -6.9374      1.00000
     12      -6.8375      1.00000
     13      -6.6369      1.00000
     14      -6.6342      1.00000
     15      -6.6162      1.00000
     16      -6.3498      1.00000
     17      -6.3470      1.00000
     18      -6.3173      1.00000
     19      -6.2922      1.00000
     20      -6.1534      1.00000
     21      -6.1070      1.00000
     22      -6.0106      1.00000
     23      -6.0081      1.00000
     24      -6.0052      1.00000
     25      -5.8445      1.00000
     26      -5.7950      1.00000
     27      -5.7844      1.00000
     28      -5.7430      1.00000
     29      -5.7213      1.00000
     30      -5.6721      1.00000
     31      -5.6606      1.00000
     32      -5.6255      1.00000
     33      -5.6184      1.00000
     34      -5.5481      1.00000
     35      -5.4180      1.00000
     36      -5.4047      1.00000
     37      -5.3826      1.00000
     38      -5.3466      1.00000
     39      -5.3287      1.00000
     40      -5.3019      1.00000
     41      -5.2589      1.00000
     42      -5.2460      1.00000
     43      -5.2254      1.00000
     44      -5.1455      1.00000
     45      -5.0999      1.00000
     46      -5.0637      1.00000
     47      -5.0400      1.00000
     48      -4.9909      1.00000
     49      -4.9777      1.00000
     50      -4.9722      1.00000
     51      -4.8748      1.00000
     52      -4.7859      1.00000
     53      -4.7680      1.00000
     54      -4.7144      1.00000
     55      -4.6721      1.00000
     56      -4.6394      1.00000
     57      -4.5928      1.00000
     58      -4.5862      1.00000
     59      -4.5691      1.00000
     60      -4.5565      1.00000
     61      -4.5547      1.00000
     62      -4.5221      1.00000
     63      -4.2178      1.00000
     64      -4.2165      1.00000
     65      -3.9229      1.00000
     66      -3.5583      1.00000
     67      -3.4840      1.00000
     68      -2.6202      0.00000
     69      -1.1679      0.00000
     70      -1.1139      0.00000
     71      -1.0170      0.00000
     72      -0.5053      0.00000
     73      -0.3973      0.00000
     74       0.2143      0.00000
     75       2.0955      0.00000
     76       2.2406      0.00000
     77       2.2461      0.00000
     78       2.6217      0.00000
     79       3.2434      0.00000
     80       3.3051      0.00000
     81       3.5736      0.00000
     82       3.7098      0.00000
     83       3.9149      0.00000
     84       4.0579      0.00000
     85       4.1597      0.00000
     86       4.3248      0.00000
     87       4.5893      0.00000
     88       4.6622      0.00000
     89       5.0419      0.00000
     90       5.3773      0.00000
     91       5.5628      0.00000
     92       5.7095      0.00000
     93       5.8254      0.00000
     94       5.9524      0.00000
     95       6.0916      0.00000
     96       6.1620      0.00000

 k-point     5 :      -0.4000    0.2000    0.0000
  band No.  band energies     occupation 
      1      -9.4958      1.00000
      2      -9.4897      1.00000
      3      -8.3270      1.00000
      4      -7.8647      1.00000
      5      -7.8580      1.00000
      6      -7.3114      1.00000
      7      -6.9337      1.00000
      8      -6.9317      1.00000
      9      -6.9023      1.00000
     10      -6.8913      1.00000
     11      -6.7275      1.00000
     12      -6.6855      1.00000
     13      -6.6284      1.00000
     14      -6.6038      1.00000
     15      -6.4769      1.00000
     16      -6.4593      1.00000
     17      -6.4539      1.00000
     18      -6.3651      1.00000
     19      -6.3525      1.00000
     20      -6.2139      1.00000
     21      -6.1003      1.00000
     22      -6.0580      1.00000
     23      -6.0043      1.00000
     24      -5.9876      1.00000
     25      -5.9776      1.00000
     26      -5.9228      1.00000
     27      -5.9056      1.00000
     28      -5.9006      1.00000
     29      -5.8269      1.00000
     30      -5.8127      1.00000
     31      -5.7244      1.00000
     32      -5.6536      1.00000
     33      -5.6248      1.00000
     34      -5.6059      1.00000
     35      -5.5970      1.00000
     36      -5.5709      1.00000
     37      -5.5650      1.00000
     38      -5.5573      1.00000
     39      -5.4512      1.00000
     40      -5.4399      1.00000
     41      -5.3631      1.00000
     42      -5.3150      1.00000
     43      -5.1892      1.00000
     44      -5.1537      1.00000
     45      -5.1169      1.00000
     46      -5.1124      1.00000
     47      -5.0675      1.00000
     48      -5.0464      1.00000
     49      -4.9737      1.00000
     50      -4.9347      1.00000
     51      -4.8845      1.00000
     52      -4.8142      1.00000
     53      -4.8107      1.00000
     54      -4.7530      1.00000
     55      -4.7447      1.00000
     56      -4.7356      1.00000
     57      -4.6867      1.00000
     58      -4.6144      1.00000
     59      -4.6077      1.00000
     60      -4.5876      1.00000
     61      -4.5766      1.00000
     62      -4.5518      1.00000
     63      -4.5092      1.00000
     64      -4.4469      1.00000
     65      -4.1512      1.00000
     66      -3.6784      1.00000
     67      -3.2796      0.99999
     68      -2.4057      0.00000
     69      -1.8591      0.00000
     70      -0.9737      0.00000
     71      -0.8842      0.00000
     72       0.2976      0.00000
     73       0.5695      0.00000
     74       0.8581      0.00000
     75       1.8617      0.00000
     76       2.0122      0.00000
     77       2.1438      0.00000
     78       3.3733      0.00000
     79       3.4116      0.00000
     80       3.7290      0.00000
     81       3.8030      0.00000
     82       4.1262      0.00000
     83       4.3690      0.00000
     84       4.4653      0.00000
     85       4.4879      0.00000
     86       4.6159      0.00000
     87       4.7894      0.00000
     88       4.8061      0.00000
     89       4.9808      0.00000
     90       5.0880      0.00000
     91       5.3358      0.00000
     92       5.5880      0.00000
     93       5.7588      0.00000
     94       5.7848      0.00000
     95       5.8087      0.00000
     96       5.8845      0.00000
 Fermi energy:        -2.9666531164

 spin component 2

 k-point     1 :       0.0000    0.0000    0.0000
  band No.  band energies     occupation 
      1     -11.5497      1.00000
      2      -9.5582      1.00000
      3      -8.1024      1.00000
      4      -7.6773      1.00000
      5      -7.6773      1.00000
      6      -7.6769      1.00000
      7      -7.4518      1.00000
      8      -7.4518      1.00000
      9      -7.4427      1.00000
     10      -7.0688      1.00000
     11      -7.0684      1.00000
     12      -7.0684      1.00000
     13      -7.0068      1.00000
     14      -7.0068      1.00000
     15      -6.9945      1.00000
     16      -6.3481      1.00000
     17      -6.3481      1.00000
     18      -6.3312      1.00000
     19      -6.0145      1.00000
     20      -6.0114      1.00000
     21      -6.0114      1.00000
     22      -5.9549      1.00000
     23      -5.9386      1.00000
     24      -5.9386      1.00000
     25      -5.8877      1.00000
     26      -5.6990      1.00000
     27      -5.6990      1.00000
     28      -5.6939      1.00000
     29      -5.6939      1.00000
     30      -5.6832      1.00000
     31      -5.5689      1.00000
     32      -5.5689      1.00000
     33      -5.5271      1.00000
     34      -5.4397      1.00000
     35      -5.4397      1.00000
     36      -5.0695      1.00000
     37      -5.0695      1.00000
     38      -5.0378      1.00000
     39      -5.0368      1.00000
     40      -5.0368      1.00000
     41      -5.0059      1.00000
     42      -5.0059      1.00000
     43      -4.9718      1.00000
     44      -4.9063      1.00000
     45      -4.7516      1.00000
     46      -4.7516      1.00000
     47      -4.6372      1.00000
     48      -4.6372      1.00000
     49      -4.6250      1.00000
     50      -4.5657      1.00000
     51      -4.5657      1.00000
     52      -4.5484      1.00000
     53      -4.5449      1.00000
     54      -4.5449      1.00000
     55      -4.5395      1.00000
     56      -4.5375      1.00000
     57      -4.5375      1.00000
     58      -4.3186      1.00000
     59      -4.3186      1.00000
     60      -4.3099      1.00000
     61      -4.2979      1.00000
     62      -4.2979      1.00000
     63      -4.2540      1.00000
     64      -3.5800      1.00000
     65      -2.8798      0.03855
     66      -2.8756      0.03314
     67      -2.8756      0.03313
     68      -1.7642      0.00000
     69      -1.7596      0.00000
     70      -1.7596      0.00000
     71      -1.5922      0.00000
     72      -1.3514      0.00000
     73      -1.3391      0.00000
     74      -1.3391      0.00000
     75       1.5561      0.00000
     76       1.5809      0.00000
     77       1.5810      0.00000
     78       1.6966      0.00000
     79       2.3090      0.00000
     80       2.3553      0.00000
     81       2.6670      0.00000
     82       2.8136      0.00000
     83       2.8136      0.00000
     84       2.9881      0.00000
     85       3.1920      0.00000
     86       3.5856      0.00000
     87       3.5856      0.00000
     88       3.6474      0.00000
     89       3.7467      0.00000
     90       4.4583      0.00000
     91       4.8798      0.00000
     92       5.2075      0.00000
     93       6.0452      0.00000
     94       6.0452      0.00000
     95       6.2819      0.00000
     96       6.3551      0.00000

 k-point     2 :       0.2000    0.0000    0.0000
  band No.  band energies     occupation 
      1     -11.2332      1.00000
      2      -9.2626      1.00000
      3      -7.9626      1.00000
      4      -7.8677      1.00000
      5      -7.5942      1.00000
      6      -7.5936      1.00000
      7      -7.4583      1.00000
      8      -7.3493      1.00000
      9      -7.3437      1.00000
     10      -7.0759      1.00000
     11      -7.0077      1.00000
     12      -7.0072      1.00000
     13      -6.8573      1.00000
     14      -6.8407      1.00000
     15      -6.8312      1.00000
     16      -6.3455      1.00000
     17      -6.3354      1.00000
     18      -6.3191      1.00000
     19      -6.1051      1.00000
     20      -5.9749      1.00000
     21      -5.9617      1.00000
     22      -5.9533      1.00000
     23      -5.9523      1.00000
     24      -5.9316      1.00000
     25      -5.8646      1.00000
     26      -5.8390      1.00000
     27      -5.8323      1.00000
     28      -5.6886      1.00000
     29      -5.6607      1.00000
     30      -5.6206      1.00000
     31      -5.6201      1.00000
     32      -5.6077      1.00000
     33      -5.5434      1.00000
     34      -5.5263      1.00000
     35      -5.4608      1.00000
     36      -5.2454      1.00000
     37      -5.1974      1.00000
     38      -5.1881      1.00000
     39      -5.1603      1.00000
     40      -5.0923      1.00000
     41      -5.0696      1.00000
     42      -5.0280      1.00000
     43      -5.0260      1.00000
     44      -4.9966      1.00000
     45      -4.9059      1.00000
     46      -4.8295      1.00000
     47      -4.8206      1.00000
     48      -4.7597      1.00000
     49      -4.7324      1.00000
     50      -4.7175      1.00000
     51      -4.7039      1.00000
     52      -4.6991      1.00000
     53      -4.6530      1.00000
     54      -4.6367      1.00000
     55      -4.5845      1.00000
     56      -4.5619      1.00000
     57      -4.5401      1.00000
     58      -4.5157      1.00000
     59      -4.4498      1.00000
     60      -4.4415      1.00000
     61      -4.4299      1.00000
     62      -4.3970      1.00000
     63      -4.2939      1.00000
     64      -4.2039      1.00000
     65      -3.3224      1.00000
     66      -3.0366      0.93031
     67      -2.9464      0.32071
     68      -2.9461      0.31809
     69      -1.8599      0.00000
     70      -1.8282      0.00000
     71      -1.3598      0.00000
     72      -0.5410      0.00000
     73      -0.3410      0.00000
     74      -0.2974      0.00000
     75       1.8988      0.00000
     76       1.9442      0.00000
     77       2.0000      0.00000
     78       2.2797      0.00000
     79       2.5508      0.00000
     80       2.6589      0.00000
     81       2.8258      0.00000
     82       2.9324      0.00000
     83       3.0002      0.00000
     84       3.2791      0.00000
     85       3.5393      0.00000
     86       4.0027      0.00000
     87       4.0694      0.00000
     88       4.1879      0.00000
     89       4.3236      0.00000
     90       4.8865      0.00000
     91       5.1667      0.00000
     92       5.4211      0.00000
     93       5.6551      0.00000
     94       5.8240      0.00000
     95       6.2968      0.00000
     96       6.6076      0.00000

 k-point     3 :       0.4000    0.0000    0.0000
  band No.  band energies     occupation 
      1     -10.3260      1.00000
      2      -9.0268      1.00000
      3      -8.4713      1.00000
      4      -7.6782      1.00000
      5      -7.4044      1.00000
      6      -7.4029      1.00000
      7      -7.3047      1.00000
      8      -7.1347      1.00000
      9      -7.1293      1.00000
     10      -7.0004      1.00000
     11      -6.8300      1.00000
     12      -6.8286      1.00000
     13      -6.5962      1.00000
     14      -6.5721      1.00000
     15      -6.5618      1.00000
     16      -6.3554      1.00000
     17      -6.3205      1.00000
     18      -6.2890      1.00000
     19      -6.2740      1.00000
     20      -6.2213      1.00000
     21      -6.2092      1.00000
     22      -6.1969      1.00000
     23      -5.9739      1.00000
     24      -5.9461      1.00000
     25      -5.7943      1.00000
     26      -5.7762      1.00000
     27      -5.7708      1.00000
     28      -5.7086      1.00000
     29      -5.7039      1.00000
     30      -5.6804      1.00000
     31      -5.6328      1.00000
     32      -5.5851      1.00000
     33      -5.5772      1.00000
     34      -5.5291      1.00000
     35      -5.5181      1.00000
     36      -5.5175      1.00000
     37      -5.4819      1.00000
     38      -5.4505      1.00000
     39      -5.4445      1.00000
     40      -5.4262      1.00000
     41      -5.4153      1.00000
     42      -5.2884      1.00000
     43      -5.1729      1.00000
     44      -5.1662      1.00000
     45      -5.1482      1.00000
     46      -5.1182      1.00000
     47      -5.0621      1.00000
     48      -5.0414      1.00000
     49      -5.0034      1.00000
     50      -4.9782      1.00000
     51      -4.8689      1.00000
     52      -4.8497      1.00000
     53      -4.8062      1.00000
     54      -4.7913      1.00000
     55      -4.7841      1.00000
     56      -4.7782      1.00000
     57      -4.7353      1.00000
     58      -4.5948      1.00000
     59      -4.5471      1.00000
     60      -4.5427      1.00000
     61      -4.5227      1.00000
     62      -4.4971      1.00000
     63      -4.4561      1.00000
     64      -4.4405      1.00000
     65      -3.6474      1.00000
     66      -2.9655      0.48956
     67      -2.9488      0.34070
     68      -2.6425      0.00001
     69      -1.8579      0.00000
     70      -1.7655      0.00000
     71      -1.6348      0.00000
     72      -0.4091      0.00000
     73       0.6177      0.00000
     74       0.6983      0.00000
     75       1.2363      0.00000
     76       2.7874      0.00000
     77       2.9379      0.00000
     78       2.9523      0.00000
     79       3.3900      0.00000
     80       3.5766      0.00000
     81       3.8912      0.00000
     82       3.9498      0.00000
     83       3.9924      0.00000
     84       4.1855      0.00000
     85       4.4489      0.00000
     86       4.7403      0.00000
     87       4.8799      0.00000
     88       4.8936      0.00000
     89       4.9097      0.00000
     90       5.0894      0.00000
     91       5.3743      0.00000
     92       5.5031      0.00000
     93       5.6131      0.00000
     94       5.6150      0.00000
     95       5.7934      0.00000
     96       5.9802      0.00000

 k-point     4 :       0.4000    0.2000    0.0000
  band No.  band energies     occupation 
      1     -10.6193      1.00000
      2      -8.7122      1.00000
      3      -8.2318      1.00000
      4      -8.2258      1.00000
      5      -7.4550      1.00000
      6      -7.4009      1.00000
      7      -7.3977      1.00000
      8      -7.1955      1.00000
      9      -7.0887      1.00000
     10      -6.9420      1.00000
     11      -6.9375      1.00000
     12      -6.8375      1.00000
     13      -6.6369      1.00000
     14      -6.6343      1.00000
     15      -6.6162      1.00000
     16      -6.3499      1.00000
     17      -6.3471      1.00000
     18      -6.3173      1.00000
     19      -6.2922      1.00000
     20      -6.1534      1.00000
     21      -6.1070      1.00000
     22      -6.0107      1.00000
     23      -6.0081      1.00000
     24      -6.0052      1.00000
     25      -5.8445      1.00000
     26      -5.7950      1.00000
     27      -5.7845      1.00000
     28      -5.7430      1.00000
     29      -5.7213      1.00000
     30      -5.6721      1.00000
     31      -5.6606      1.00000
     32      -5.6256      1.00000
     33      -5.6184      1.00000
     34      -5.5481      1.00000
     35      -5.4181      1.00000
     36      -5.4047      1.00000
     37      -5.3827      1.00000
     38      -5.3466      1.00000
     39      -5.3287      1.00000
     40      -5.3019      1.00000
     41      -5.2590      1.00000
     42      -5.2460      1.00000
     43      -5.2254      1.00000
     44      -5.1455      1.00000
     45      -5.0999      1.00000
     46      -5.0638      1.00000
     47      -5.0400      1.00000
     48      -4.9909      1.00000
     49      -4.9778      1.00000
     50      -4.9722      1.00000
     51      -4.8748      1.00000
     52      -4.7860      1.00000
     53      -4.7680      1.00000
     54      -4.7143      1.00000
     55      -4.6721      1.00000
     56      -4.6395      1.00000
     57      -4.5928      1.00000
     58      -4.5862      1.00000
     59      -4.5691      1.00000
     60      -4.5565      1.00000
     61      -4.5548      1.00000
     62      -4.5221      1.00000
     63      -4.2178      1.00000
     64      -4.2166      1.00000
     65      -3.9223      1.00000
     66      -3.5584      1.00000
     67      -3.4840      1.00000
     68      -2.6193      0.00000
     69      -1.1680      0.00000
     70      -1.1140      0.00000
     71      -1.0171      0.00000
     72      -0.5053      0.00000
     73      -0.3969      0.00000
     74       0.2142      0.00000
     75       2.0954      0.00000
     76       2.2406      0.00000
     77       2.2464      0.00000
     78       2.6202      0.00000
     79       3.2560      0.00000
     80       3.3128      0.00000
     81       3.5816      0.00000
     82       3.7131      0.00000
     83       3.9215      0.00000
     84       4.0579      0.00000
     85       4.1601      0.00000
     86       4.3276      0.00000
     87       4.5958      0.00000
     88       4.6696      0.00000
     89       5.0420      0.00000
     90       5.3773      0.00000
     91       5.5660      0.00000
     92       5.7137      0.00000
     93       5.8322      0.00000
     94       5.9540      0.00000
     95       6.0937      0.00000
     96       6.1656      0.00000

 k-point     5 :      -0.4000    0.2000    0.0000
  band No.  band energies     occupation 
      1      -9.4959      1.00000
      2      -9.4898      1.00000
      3      -8.3271      1.00000
      4      -7.8647      1.00000
      5      -7.8581      1.00000
      6      -7.3114      1.00000
      7      -6.9337      1.00000
      8      -6.9318      1.00000
      9      -6.9023      1.00000
     10      -6.8914      1.00000
     11      -6.7276      1.00000
     12      -6.6855      1.00000
     13      -6.6284      1.00000
     14      -6.6039      1.00000
     15      -6.4769      1.00000
     16      -6.4594      1.00000
     17      -6.4540      1.00000
     18      -6.3651      1.00000
     19      -6.3525      1.00000
     20      -6.2139      1.00000
     21      -6.1004      1.00000
     22      -6.0580      1.00000
     23      -6.0044      1.00000
     24      -5.9877      1.00000
     25      -5.9776      1.00000
     26      -5.9229      1.00000
     27      -5.9056      1.00000
     28      -5.9006      1.00000
     29      -5.8269      1.00000
     30      -5.8127      1.00000
     31      -5.7244      1.00000
     32      -5.6537      1.00000
     33      -5.6248      1.00000
     34      -5.6060      1.00000
     35      -5.5970      1.00000
     36      -5.5710      1.00000
     37      -5.5651      1.00000
     38      -5.5573      1.00000
     39      -5.4512      1.00000
     40      -5.4399      1.00000
     41      -5.3631      1.00000
     42      -5.3151      1.00000
     43      -5.1892      1.00000
     44      -5.1537      1.00000
     45      -5.1169      1.00000
     46      -5.1124      1.00000
     47      -5.0676      1.00000
     48      -5.0464      1.00000
     49      -4.9737      1.00000
     50      -4.9348      1.00000
     51      -4.8845      1.00000
     52      -4.8142      1.00000
     53      -4.8107      1.00000
     54      -4.7531      1.00000
     55      -4.7448      1.00000
     56      -4.7356      1.00000
     57      -4.6866      1.00000
     58      -4.6144      1.00000
     59      -4.6077      1.00000
     60      -4.5876      1.00000
     61      -4.5766      1.00000
     62      -4.5519      1.00000
     63      -4.5092      1.00000
     64      -4.4470      1.00000
     65      -4.1512      1.00000
     66      -3.6780      1.00000
     67      -3.2789      0.99999
     68      -2.4058      0.00000
     69      -1.8586      0.00000
     70      -0.9736      0.00000
     71      -0.8842      0.00000
     72       0.2975      0.00000
     73       0.5694      0.00000
     74       0.8583      0.00000
     75       1.8617      0.00000
     76       2.0121      0.00000
     77       2.1439      0.00000
     78       3.3733      0.00000
     79       3.4115      0.00000
     80       3.7275      0.00000
     81       3.8025      0.00000
     82       4.1293      0.00000
     83       4.3743      0.00000
     84       4.4784      0.00000
     85       4.5011      0.00000
     86       4.6165      0.00000
     87       4.7987      0.00000
     88       4.8161      0.00000
     89       4.9891      0.00000
     90       5.0974      0.00000
     91       5.3391      0.00000
     92       5.5930      0.00000
     93       5.7647      0.00000
     94       5.7962      0.00000
     95       5.8158      0.00000
     96       5.8886      0.00000


--------------------------------------------------------------------------------------------------------


 soft charge-density along one line, spin component           1
         0         1         2         3         4         5         6         7         8         9
 total charge-density along one line
 
 soft charge-density along one line, spin component           2
         0         1         2         3         4         5         6         7         8         9
 total charge-density along one line
 
 pseudopotential strength for first ion, spin component:           1
-10.392  -0.002  -0.003  -0.004   0.000   0.940   0.001   0.002
 -0.002 -10.357  -0.001   0.003  -0.003   0.001   0.911   0.001
 -0.003  -0.001 -10.352  -0.002  -0.002   0.002   0.001   0.906
 -0.004   0.003  -0.002 -10.353  -0.002   0.003  -0.002   0.002
  0.000  -0.003  -0.002  -0.002 -10.392  -0.000   0.002   0.001
  0.940   0.001   0.002   0.003  -0.000   6.328  -0.001  -0.002
  0.001   0.911   0.001  -0.002   0.002  -0.001   6.348  -0.001
  0.002   0.001   0.906   0.002   0.001  -0.002  -0.001   6.352
  0.003  -0.002   0.002   0.908   0.001  -0.002   0.002  -0.001
 -0.000   0.002   0.001   0.001   0.940   0.000  -0.001  -0.001
 -0.001   0.000  -0.007   0.001  -0.000   0.000  -0.000   0.002
 -0.001   0.001  -0.014   0.001  -0.001   0.001  -0.000   0.004
  0.001  -0.007  -0.000   0.000  -0.001  -0.001   0.008   0.000
  0.000   0.001  -0.006   0.001   0.000  -0.000  -0.001   0.007
  0.001   0.000  -0.001  -0.007   0.001  -0.000  -0.000   0.000
  0.002  -0.008  -0.001   0.000  -0.001  -0.001   0.010   0.000
  0.000   0.001  -0.007   0.002   0.000  -0.000  -0.001   0.009
  0.001   0.000  -0.001  -0.008   0.002  -0.000  -0.000   0.001
 pseudopotential strength for first ion, spin component:           2
-10.392  -0.002  -0.003  -0.004   0.000   0.940   0.001   0.002
 -0.002 -10.357  -0.001   0.003  -0.003   0.001   0.911   0.001
 -0.003  -0.001 -10.352  -0.002  -0.002   0.002   0.001   0.906
 -0.004   0.003  -0.002 -10.353  -0.002   0.003  -0.002   0.002
  0.000  -0.003  -0.002  -0.002 -10.392  -0.000   0.002   0.001
  0.940   0.001   0.002   0.003  -0.000   6.328  -0.001  -0.002
  0.001   0.911   0.001  -0.002   0.002  -0.001   6.348  -0.001
  0.002   0.001   0.906   0.002   0.001  -0.002  -0.001   6.352
  0.003  -0.002   0.002   0.908   0.001  -0.002   0.002  -0.001
 -0.000   0.002   0.001   0.001   0.940   0.000  -0.001  -0.001
 -0.001   0.000  -0.007   0.001  -0.000   0.000  -0.000   0.002
 -0.001   0.001  -0.014   0.001  -0.001   0.001  -0.000   0.004
  0.001  -0.007  -0.000   0.000  -0.001  -0.001   0.008   0.000
  0.000   0.001  -0.006   0.001   0.000  -0.000  -0.001   0.007
  0.001   0.000  -0.001  -0.007   0.001  -0.000  -0.000   0.000
  0.002  -0.008  -0.001   0.000  -0.001  -0.001   0.010   0.000
  0.000   0.001  -0.007   0.002   0.000  -0.000  -0.001   0.009
  0.001   0.000  -0.001  -0.008   0.002  -0.000  -0.000   0.001
 total augmentation occupancy for first ion, spin component:           1
  1.907  -0.000  -0.000  -0.004   0.000  -0.017   0.000   0.000   0.004  -0.000  -0.002  -0.001  -0.001   0.001   0.004   0.001
 -0.000   1.923  -0.002   0.001  -0.003   0.000  -0.033   0.001  -0.000   0.004  -0.004   0.000   0.008   0.001   0.001  -0.008
 -0.000  -0.002   1.921  -0.004  -0.000   0.000   0.001  -0.028   0.001   0.000   0.004   0.014  -0.001   0.053  -0.001  -0.000
 -0.004   0.001  -0.004   1.925  -0.000   0.004  -0.000   0.001  -0.034   0.000  -0.007   0.000   0.001   0.002   0.009   0.000
  0.000  -0.003  -0.000  -0.000   1.906  -0.000   0.004   0.000   0.000  -0.017  -0.001  -0.000   0.005   0.001  -0.001  -0.001
 -0.017   0.000   0.000   0.004  -0.000   0.014  -0.000  -0.000   0.000   0.000   0.000   0.000   0.000  -0.000   0.003  -0.000
  0.000  -0.033   0.001  -0.000   0.004  -0.000   0.010  -0.000   0.000   0.000   0.001   0.000   0.017  -0.000  -0.000  -0.001
  0.000   0.001  -0.028   0.001   0.000  -0.000  -0.000   0.013  -0.000  -0.000  -0.045   0.002   0.000   0.022   0.000  -0.000
  0.004  -0.000   0.001  -0.034   0.000   0.000   0.000  -0.000   0.010  -0.000   0.002   0.000  -0.000  -0.000   0.017   0.000
 -0.000   0.004   0.000   0.000  -0.017   0.000   0.000  -0.000  -0.000   0.014   0.000   0.000   0.003  -0.000   0.000  -0.000
 -0.002  -0.004   0.004  -0.007  -0.001   0.000   0.001  -0.045   0.002   0.000   1.704  -0.133  -0.002   0.128  -0.003   0.000
 -0.001   0.000   0.014   0.000  -0.000   0.000   0.000   0.002   0.000   0.000  -0.133   0.016  -0.000  -0.023  -0.000  -0.000
 -0.001   0.008  -0.001   0.001   0.005   0.000   0.017   0.000  -0.000   0.003  -0.002  -0.000   0.209   0.001   0.002  -0.013
  0.001   0.001   0.053   0.002   0.001  -0.000  -0.000   0.022  -0.000  -0.000   0.128  -0.023   0.001   0.128   0.002  -0.000
  0.004   0.001  -0.001   0.009  -0.001   0.003  -0.000   0.000   0.017   0.000  -0.003  -0.000   0.002   0.002   0.211  -0.000
  0.001  -0.008  -0.000   0.000  -0.001  -0.000  -0.001  -0.000   0.000  -0.000   0.000  -0.000  -0.013  -0.000  -0.000   0.001
  0.000   0.000  -0.012   0.001   0.000   0.000  -0.000  -0.001  -0.000   0.000  -0.019   0.002  -0.000  -0.008  -0.000  -0.000
 -0.000   0.000  -0.000  -0.008   0.001  -0.000   0.000  -0.000  -0.001  -0.000   0.000  -0.000  -0.000  -0.000  -0.013  -0.000
 total augmentation occupancy for first ion, spin component:           2
 -0.000   0.000   0.000   0.000   0.000   0.000  -0.000  -0.000  -0.000  -0.000   0.000   0.000  -0.000  -0.000  -0.000  -0.000
  0.000  -0.000   0.000   0.000   0.000  -0.000   0.000  -0.000  -0.000  -0.000   0.000   0.000   0.000  -0.000  -0.000   0.000
  0.000   0.000  -0.000   0.000   0.000  -0.000  -0.000   0.000  -0.000  -0.000   0.000  -0.000   0.000   0.000   0.000  -0.000
  0.000   0.000   0.000  -0.000   0.000  -0.000  -0.000  -0.000   0.000  -0.000   0.000   0.000  -0.000  -0.000   0.000  -0.000
  0.000   0.000   0.000   0.000  -0.000  -0.000  -0.000  -0.000  -0.000   0.000   0.000   0.000  -0.000  -0.000  -0.000  -0.000
  0.000  -0.000  -0.000  -0.000  -0.000  -0.000   0.000   0.000   0.000  -0.000  -0.000   0.000   0.000   0.000   0.000  -0.000
 -0.000   0.000  -0.000  -0.000  -0.000   0.000  -0.000   0.000  -0.000   0.000  -0.000  -0.000  -0.000   0.000   0.000   0.000
 -0.000  -0.000   0.000  -0.000  -0.000   0.000   0.000  -0.000   0.000   0.000  -0.000   0.000  -0.000  -0.000  -0.000  -0.000
 -0.000  -0.000  -0.000   0.000  -0.000   0.000  -0.000   0.000  -0.000   0.000  -0.000  -0.000   0.000   0.000  -0.000  -0.000
 -0.000  -0.000  -0.000  -0.000   0.000  -0.000   0.000   0.000   0.000  -0.000  -0.000   0.000   0.000   0.000   0.000   0.000
  0.000   0.000   0.000   0.000   0.000  -0.000  -0.000  -0.000  -0.000  -0.000  -0.000  -0.000   0.000   0.000   0.000   0.000
  0.000   0.000  -0.000   0.000   0.000   0.000  -0.000   0.000  -0.000   0.000  -0.000  -0.000   0.000   0.000   0.000  -0.000
 -0.000   0.000   0.000  -0.000  -0.000   0.000  -0.000  -0.000   0.000   0.000   0.000   0.000  -0.000  -0.000  -0.000   0.000
 -0.000  -0.000   0.000  -0.000  -0.000   0.000   0.000  -0.000   0.000   0.000   0.000   0.000  -0.000   0.000  -0.000   0.000
 -0.000  -0.000   0.000   0.000  -0.000   0.000   0.000  -0.000  -0.000   0.000   0.000   0.000  -0.000  -0.000  -0.000   0.000
 -0.000   0.000  -0.000  -0.000  -0.000  -0.000   0.000  -0.000  -0.000   0.000   0.000  -0.000   0.000   0.000   0.000  -0.000
  0.000  -0.000   0.000  -0.000   0.000   0.000   0.000   0.000   0.000   0.000  -0.000   0.000  -0.000   0.000  -0.000   0.000
 -0.000  -0.000  -0.000  -0.000  -0.000  -0.000  -0.000  -0.000  -0.000  -0.000   0.000  -0.000   0.000   0.000   0.000   0.000


------------------------ aborting loop because EDIFF is reached ----------------------------------------


    CHARGE:  cpu time      0.1086: real time      0.1092
    FORLOC:  cpu time      0.0020: real time      0.0020
    FORNL :  cpu time      0.2298: real time      0.2321
    STRESS:  cpu time      1.5232: real time      1.5373
    FORCOR:  cpu time      0.0377: real time      0.0379
    FORHAR:  cpu time      0.0044: real time      0.0044
    MIXING:  cpu time      0.0011: real time      0.0011
    OFIELD:  cpu time      0.0000: real time      0.0000

 ---------------------------------------------------------------------------------------------

         DFTD3 V3.0 Rev 1        
 Edisp (eV)   -4.66924

 E6    (eV) :    -2.5823
 E8    (eV) :    -2.0869
 % E8        : 44.70
    FORVDW:  cpu time      0.0101: real time      0.0102

  FORCE on cell =-STRESS in cart. coord.  units (eV):
  Direction    XX          YY          ZZ          XY          YZ          ZX
  --------------------------------------------------------------------------------------
  Alpha Z   137.59429   137.59429   137.59429
  Ewald  132171.84826132171.84826************    -0.00000    -0.00000    -0.00000
  Hartree136008.68661136008.68661************     0.00000    -0.00000    -0.00000
  E(xc)    -772.10903  -772.10889  -773.95061    -0.00012     0.00000     0.00000
  Local  ************************272852.12705     0.00202    -0.00000    -0.00000
  n-local  -255.84618  -270.10960  -269.39074    -8.76154    -0.09303     0.03371
  augment  1132.83802  1132.84009  1141.64641    -0.00180     0.00002     0.00003
  Kinetic  1077.16614  1076.51734  1088.75690    -0.67148    -0.78170     0.89000
  Fock        0.00000     0.00000     0.00000     0.00000     0.00000     0.00000
  vdW        -4.94097    -4.94097    -2.52028     0.00000    -0.00000    -0.00000
  -------------------------------------------------------------------------------------
  Total      -8.39513    -8.39513    -6.74400    -0.00000    -0.00000     0.00000
  in kB     -17.38849   -17.38849   -13.96858    -0.00000    -0.00000     0.00000
  external pressure =      -16.25 kB  Pullay stress =        0.00 kB


 VOLUME and BASIS-vectors are now :
 -----------------------------------------------------------------------------
  energy-cutoff  :      600.00
  volume of cell :      773.53
      direct lattice vectors                 reciprocal lattice vectors
     5.112382028  0.000000000  0.000000000     0.195603536 -0.112931754  0.000000000
     2.556191014  4.427452710  0.000000000     0.000000000  0.225863508  0.000000000
     0.000000000  0.000000000 34.174242446     0.000000000  0.000000000  0.029261804

  length of vectors
     5.112382028  5.112382028 34.174242446     0.225863508  0.225863508  0.029261804


 FORCES acting on ions
    electron-ion (+dipol)            ewald-force                    non-local-force                 convergence-correction
 -----------------------------------------------------------------------------------------------
   -.262E+00 -.151E+00 0.317E+04   0.127E-01 0.735E-02 -.317E+04   0.208E+00 0.120E+00 -.169E+01   0.343E-02 0.198E-02 0.505E-01
   0.262E+00 -.151E+00 0.317E+04   -.127E-01 0.735E-02 -.317E+04   -.208E+00 0.120E+00 -.169E+01   -.343E-02 0.198E-02 0.505E-01
   0.268E-05 0.302E+00 0.317E+04   -.417E-08 -.147E-01 -.317E+04   0.949E-17 -.240E+00 -.169E+01   0.133E-07 -.396E-02 0.505E-01
   0.255E-05 0.147E-05 0.318E+04   0.502E-08 0.461E-08 -.317E+04   -.178E-16 -.278E-17 -.272E+01   -.127E-09 -.735E-10 0.462E-01
   -.243E-05 -.820E+00 0.330E+02   -.579E-08 0.284E+00 -.327E+02   -.211E-17 0.489E+00 -.357E+00   0.155E-07 0.113E-01 0.526E-01
   -.230E-05 -.132E-05 0.323E+02   0.456E-08 -.820E-08 -.323E+02   -.225E-18 -.641E-18 0.922E-01   0.295E-09 0.171E-09 0.640E-01
   0.711E+00 0.410E+00 0.330E+02   -.246E+00 -.142E+00 -.327E+02   -.423E+00 -.244E+00 -.357E+00   -.979E-02 -.565E-02 0.526E-01
   -.711E+00 0.410E+00 0.330E+02   0.246E+00 -.142E+00 -.327E+02   0.423E+00 -.244E+00 -.357E+00   0.979E-02 -.565E-02 0.526E-01
   -.385E-06 -.223E-06 -.310E+04   -.618E-08 -.249E-08 0.310E+04   0.441E-17 0.115E-17 0.219E+00   0.160E-08 0.921E-09 0.107E+00
   -.222E-06 -.140E-01 -.311E+04   0.506E-08 -.823E-08 0.311E+04   0.123E-17 0.191E-01 0.347E+01   -.137E-08 0.422E-02 0.826E-01
   -.121E-01 0.700E-02 -.311E+04   -.497E-08 0.803E-08 0.311E+04   0.165E-01 -.955E-02 0.347E+01   0.365E-02 -.211E-02 0.826E-01
   0.121E-01 0.700E-02 -.311E+04   0.615E-08 0.222E-08 0.311E+04   -.165E-01 -.955E-02 0.347E+01   -.365E-02 -.211E-02 0.826E-01
   -.772E-07 -.446E-07 -.394E+03   -.707E-10 -.405E-10 0.392E+03   0.256E-19 0.226E-19 -.495E+00   0.406E-10 0.234E-10 0.149E-01
 -----------------------------------------------------------------------------------------------
   0.400E-06 0.235E-06 -.213E+01   0.994E-13 -.356E-13 0.682E-12   0.833E-16 0.226E-19 0.137E+01   0.439E-08 0.253E-08 0.789E+00
 
 
 POSITION                                       TOTAL-FORCE (eV/Angst)
 -----------------------------------------------------------------------------------
      1.27810      0.73791     15.00000        -0.037868     -0.021863      0.117197
      3.83429      0.73791     15.00000         0.037868     -0.021863      0.117197
      2.55619      2.95164     15.00000        -0.000000      0.043726      0.117197
      5.11238      2.95164     15.00000        -0.000000     -0.000000      0.144780
      5.11238      1.47582     17.08712         0.000000     -0.036668      0.049963
      2.55619      1.47582     17.08712        -0.000000     -0.000000      0.086752
      6.39048      3.68954     17.08712         0.031756      0.018334      0.049963
      3.83429      3.68954     17.08712        -0.031756      0.018334      0.049963
      0.00000      0.00000     19.17424        -0.000000     -0.000000      1.188849
      2.55619      0.00000     19.17424        -0.000000      0.009304     -0.056404
      1.27810      2.21373     19.17424         0.008058     -0.004652     -0.056404
      3.83429      2.21373     19.17424        -0.008058     -0.004652     -0.056404
      0.00000      0.00000     21.51512        -0.000000     -0.000000     -1.752649
 -----------------------------------------------------------------------------------
    total drift:                                0.000000      0.000000      0.024592


--------------------------------------------------------------------------------------------------------



  FREE ENERGIE OF THE ION-ELECTRON SYSTEM (eV)
  ---------------------------------------------------
  free  energy   TOTEN  =       -47.28958004 eV

  energy  without entropy=      -47.25181235  energy(sigma->0) =      -47.27069620
 
 d Force = 0.1301648E+00[ 0.133E+00, 0.127E+00]  d Energy = 0.1302594E+00-0.946E-04
 d Force =-0.2977604E+02[-0.299E+02,-0.297E+02]  d Ewald  =-0.2977566E+02-0.375E-03


--------------------------------------------------------------------------------------------------------


    POTLOK:  cpu time      0.0512: real time      0.0515


--------------------------------------------------------------------------------------------------------




--------------------------------------------------------------------------------------------------------


    WAVPRE:  cpu time      0.0045: real time      0.0220
    FEWALD:  cpu time      0.0003: real time      0.0003
    ORTHCH:  cpu time      0.2022: real time      0.2046
     LOOP+:  cpu time     15.8957: real time     16.0811


--------------------------------------- Iteration      4(   1)  ---------------------------------------


    POTLOK:  cpu time      0.0441: real time      0.0444
    SETDIJ:  cpu time      0.0060: real time      0.0060
     EDDAV:  cpu time      2.1966: real time      2.2192
       DOS:  cpu time      0.0003: real time      0.0003
    CHARGE:  cpu time      0.1060: real time      0.1068
    MIXING:  cpu time      0.0008: real time      0.0008
    --------------------------------------------
      LOOP:  cpu time      2.3539: real time      2.3776

 eigenvalue-minimisations  :  1920
 total energy-change (2. order) :-0.1309916E+00  (-0.1578260E+00)
 number of electron     133.0000046 magnetization       0.0000274
 augmentation part       84.3244806 magnetization      -0.0001419

 Broyden mixing:
  rms(total) = 0.16178E-01    rms(broyden)= 0.16175E-01
  rms(prec ) = 0.17276E-01
  weight for this iteration     100.00

 Free energy of the ion-electron system (eV)
  ---------------------------------------------------
  alpha Z        PSCENC =       137.59429322
  Ewald energy   TEWEN  =    123436.05531348
  -Hartree energ DENC   =   -138801.95866769
  -exchange      EXHF   =         0.00000000
  -V(xc)+E(xc)   XCENC  =       535.65996673
  PAW double counting   =     15583.41284533   -16874.49405287
  entropy T*S    EENTRO =        -0.03869829
  eigenvalues    EBANDS =      -763.19986699
  atomic energy  EATOM  =     16704.21750749
  Solvation  Ecorr_sol  =         0.00000000
  ---------------------------------------------------
  free energy    TOTEN  =       -42.75135959 eV

  energy without entropy =      -42.71266130  energy(sigma->0) =      -42.73201045


--------------------------------------------------------------------------------------------------------




--------------------------------------- Iteration      4(   2)  ---------------------------------------


    POTLOK:  cpu time      0.0442: real time      0.0446
    SETDIJ:  cpu time      0.0040: real time      0.0040
     EDDAV:  cpu time      2.5999: real time      2.6264
       DOS:  cpu time      0.0003: real time      0.0003
    CHARGE:  cpu time      0.1063: real time      0.1069
    MIXING:  cpu time      0.0012: real time      0.0012
    --------------------------------------------
      LOOP:  cpu time      2.7561: real time      2.7835

 eigenvalue-minimisations  :  2336
 total energy-change (2. order) :-0.7226281E-03  (-0.1527673E-02)
 number of electron     133.0000046 magnetization       0.0000220
 augmentation part       84.3129715 magnetization      -0.0000166

 Broyden mixing:
  rms(total) = 0.12683E-01    rms(broyden)= 0.12682E-01
  rms(prec ) = 0.13732E-01
  weight for this iteration     100.00

 eigenvalues of (default mixing * dielectric matrix)
  average eigenvalue GAMMA=   0.6109
  0.6109

 Free energy of the ion-electron system (eV)
  ---------------------------------------------------
  alpha Z        PSCENC =       137.59429322
  Ewald energy   TEWEN  =    123436.05531348
  -Hartree energ DENC   =   -138804.09710618
  -exchange      EXHF   =         0.00000000
  -V(xc)+E(xc)   XCENC  =       535.65885592
  PAW double counting   =     15585.00761762   -16876.14693790
  entropy T*S    EENTRO =        -0.03764769
  eigenvalues    EBANDS =      -761.00397818
  atomic energy  EATOM  =     16704.21750749
  Solvation  Ecorr_sol  =         0.00000000
  ---------------------------------------------------
  free energy    TOTEN  =       -42.75208222 eV

  energy without entropy =      -42.71443453  energy(sigma->0) =      -42.73325837


--------------------------------------------------------------------------------------------------------




--------------------------------------- Iteration      4(   3)  ---------------------------------------


    POTLOK:  cpu time      0.0442: real time      0.0451
    SETDIJ:  cpu time      0.0041: real time      0.0041
     EDDAV:  cpu time      2.5494: real time      2.5743
       DOS:  cpu time      0.0012: real time      0.0012
    CHARGE:  cpu time      0.1076: real time      0.1082
    MIXING:  cpu time      0.0010: real time      0.0010
    --------------------------------------------
      LOOP:  cpu time      2.7075: real time      2.7338

 eigenvalue-minimisations  :  2304
 total energy-change (2. order) : 0.2145132E-03  (-0.3238498E-03)
 number of electron     133.0000046 magnetization       0.0000143
 augmentation part       84.3235518 magnetization      -0.0000393

 Broyden mixing:
  rms(total) = 0.99992E-02    rms(broyden)= 0.99982E-02
  rms(prec ) = 0.10658E-01
  weight for this iteration     100.00

 eigenvalues of (default mixing * dielectric matrix)
  average eigenvalue GAMMA=   0.7845
  1.2147  0.3544

 Free energy of the ion-electron system (eV)
  ---------------------------------------------------
  alpha Z        PSCENC =       137.59429322
  Ewald energy   TEWEN  =    123436.05531348
  -Hartree energ DENC   =   -138803.58595631
  -exchange      EXHF   =         0.00000000
  -V(xc)+E(xc)   XCENC  =       535.64874852
  PAW double counting   =     15584.41224662   -16875.45960201
  entropy T*S    EENTRO =        -0.03828263
  eigenvalues    EBANDS =      -761.59613609
  atomic energy  EATOM  =     16704.21750749
  Solvation  Ecorr_sol  =         0.00000000
  ---------------------------------------------------
  free energy    TOTEN  =       -42.75186771 eV

  energy without entropy =      -42.71358508  energy(sigma->0) =      -42.73272639


--------------------------------------------------------------------------------------------------------




--------------------------------------- Iteration      4(   4)  ---------------------------------------


    POTLOK:  cpu time      0.0443: real time      0.0454
    SETDIJ:  cpu time      0.0031: real time      0.0032
     EDDAV:  cpu time      2.6428: real time      2.6696
       DOS:  cpu time      0.0003: real time      0.0003
    CHARGE:  cpu time      0.1069: real time      0.1075
    MIXING:  cpu time      0.0017: real time      0.0017
    --------------------------------------------
      LOOP:  cpu time      2.7993: real time      2.8277

 eigenvalue-minimisations  :  2368
 total energy-change (2. order) : 0.1334413E-03  (-0.7932940E-04)
 number of electron     133.0000046 magnetization       0.0000049
 augmentation part       84.3263027 magnetization      -0.0000266

 Broyden mixing:
  rms(total) = 0.51093E-02    rms(broyden)= 0.51090E-02
  rms(prec ) = 0.54720E-02
  weight for this iteration     100.00

 eigenvalues of (default mixing * dielectric matrix)
  average eigenvalue GAMMA=   0.9226
  1.8963  0.5307  0.3408

 Free energy of the ion-electron system (eV)
  ---------------------------------------------------
  alpha Z        PSCENC =       137.59429322
  Ewald energy   TEWEN  =    123436.05531348
  -Hartree energ DENC   =   -138803.99035737
  -exchange      EXHF   =         0.00000000
  -V(xc)+E(xc)   XCENC  =       535.64804359
  PAW double counting   =     15584.31041262   -16875.34967913
  entropy T*S    EENTRO =        -0.03814706
  eigenvalues    EBANDS =      -761.19912112
  atomic energy  EATOM  =     16704.21750749
  Solvation  Ecorr_sol  =         0.00000000
  ---------------------------------------------------
  free energy    TOTEN  =       -42.75173427 eV

  energy without entropy =      -42.71358721  energy(sigma->0) =      -42.73266074


--------------------------------------------------------------------------------------------------------




--------------------------------------- Iteration      4(   5)  ---------------------------------------


    POTLOK:  cpu time      0.0452: real time      0.0456
    SETDIJ:  cpu time      0.0038: real time      0.0038
     EDDAV:  cpu time      2.0241: real time      2.0443
       DOS:  cpu time      0.0009: real time      0.0009
    --------------------------------------------
      LOOP:  cpu time      2.0741: real time      2.0947

 eigenvalue-minimisations  :  1664
 total energy-change (2. order) : 0.6586441E-04  (-0.2566087E-04)
 number of electron     133.0000046 magnetization       0.0000049
 augmentation part       84.3263027 magnetization      -0.0000266

 Free energy of the ion-electron system (eV)
  ---------------------------------------------------
  alpha Z        PSCENC =       137.59429322
  Ewald energy   TEWEN  =    123436.05531348
  -Hartree energ DENC   =   -138804.83552480
  -exchange      EXHF   =         0.00000000
  -V(xc)+E(xc)   XCENC  =       535.65514484
  PAW double counting   =     15584.49372377   -16875.58621297
  entropy T*S    EENTRO =        -0.03808135
  eigenvalues    EBANDS =      -760.30783209
  atomic energy  EATOM  =     16704.21750749
  Solvation  Ecorr_sol  =         0.00000000
  ---------------------------------------------------
  free energy    TOTEN  =       -42.75166840 eV

  energy without entropy =      -42.71358705  energy(sigma->0) =      -42.73262773


--------------------------------------------------------------------------------------------------------




 average (electrostatic) potential at core
  the test charge radii are     0.9430  0.5201
  (the norm of the test charge is              1.0000)
       1 -73.9578       2 -73.9578       3 -73.9578       4 -73.9878       5 -74.2345
       6 -74.2470       7 -74.2345       8 -74.2345       9 -74.0652      10 -73.8919
      11 -73.8919      12 -73.8919      13 -38.3689
 
 
 
 E-fermi :  -2.9424     XC(G=0):  -3.0141     alpha+bet : -2.4952

 Fermi energy:        -2.9423558165

 spin component 1

 k-point     1 :       0.0000    0.0000    0.0000
  band No.  band energies     occupation 
      1     -11.5257      1.00000
      2      -9.5381      1.00000
      3      -8.0805      1.00000
      4      -7.6525      1.00000
      5      -7.6522      1.00000
      6      -7.6522      1.00000
      7      -7.4280      1.00000
      8      -7.4280      1.00000
      9      -7.4193      1.00000
     10      -7.0449      1.00000
     11      -7.0447      1.00000
     12      -7.0447      1.00000
     13      -6.9845      1.00000
     14      -6.9845      1.00000
     15      -6.9715      1.00000
     16      -6.3267      1.00000
     17      -6.3267      1.00000
     18      -6.3077      1.00000
     19      -5.9932      1.00000
     20      -5.9880      1.00000
     21      -5.9880      1.00000
     22      -5.9316      1.00000
     23      -5.9131      1.00000
     24      -5.9131      1.00000
     25      -5.8808      1.00000
     26      -5.6753      1.00000
     27      -5.6753      1.00000
     28      -5.6704      1.00000
     29      -5.6704      1.00000
     30      -5.6586      1.00000
     31      -5.5463      1.00000
     32      -5.5463      1.00000
     33      -5.5203      1.00000
     34      -5.4153      1.00000
     35      -5.4153      1.00000
     36      -5.0461      1.00000
     37      -5.0461      1.00000
     38      -5.0196      1.00000
     39      -5.0159      1.00000
     40      -5.0159      1.00000
     41      -4.9830      1.00000
     42      -4.9830      1.00000
     43      -4.9471      1.00000
     44      -4.9344      1.00000
     45      -4.7286      1.00000
     46      -4.7286      1.00000
     47      -4.6133      1.00000
     48      -4.6132      1.00000
     49      -4.6000      1.00000
     50      -4.5423      1.00000
     51      -4.5423      1.00000
     52      -4.5274      1.00000
     53      -4.5206      1.00000
     54      -4.5206      1.00000
     55      -4.5143      1.00000
     56      -4.5130      1.00000
     57      -4.5130      1.00000
     58      -4.2954      1.00000
     59      -4.2954      1.00000
     60      -4.2864      1.00000
     61      -4.2769      1.00000
     62      -4.2769      1.00000
     63      -4.2285      1.00000
     64      -3.5657      1.00000
     65      -2.8567      0.04018
     66      -2.8524      0.03445
     67      -2.8524      0.03444
     68      -1.7407      0.00000
     69      -1.7372      0.00000
     70      -1.7372      0.00000
     71      -1.4945      0.00000
     72      -1.3281      0.00000
     73      -1.3161      0.00000
     74      -1.3161      0.00000
     75       1.5693      0.00000
     76       1.6035      0.00000
     77       1.6035      0.00000
     78       1.7211      0.00000
     79       2.2382      0.00000
     80       2.3822      0.00000
     81       2.7302      0.00000
     82       2.8329      0.00000
     83       2.8329      0.00000
     84       2.9563      0.00000
     85       3.2190      0.00000
     86       3.6043      0.00000
     87       3.6043      0.00000
     88       3.6214      0.00000
     89       3.7673      0.00000
     90       4.5129      0.00000
     91       4.8918      0.00000
     92       5.2202      0.00000
     93       6.0569      0.00000
     94       6.0569      0.00000
     95       6.2871      0.00000
     96       6.3603      0.00000

 k-point     2 :       0.2000    0.0000    0.0000
  band No.  band energies     occupation 
      1     -11.2091      1.00000
      2      -9.2425      1.00000
      3      -7.9381      1.00000
      4      -7.8455      1.00000
      5      -7.5694      1.00000
      6      -7.5691      1.00000
      7      -7.4347      1.00000
      8      -7.3253      1.00000
      9      -7.3202      1.00000
     10      -7.0519      1.00000
     11      -6.9839      1.00000
     12      -6.9833      1.00000
     13      -6.8346      1.00000
     14      -6.8184      1.00000
     15      -6.8083      1.00000
     16      -6.3239      1.00000
     17      -6.3131      1.00000
     18      -6.2962      1.00000
     19      -6.0850      1.00000
     20      -5.9547      1.00000
     21      -5.9382      1.00000
     22      -5.9302      1.00000
     23      -5.9291      1.00000
     24      -5.9081      1.00000
     25      -5.8445      1.00000
     26      -5.8144      1.00000
     27      -5.8067      1.00000
     28      -5.6720      1.00000
     29      -5.6367      1.00000
     30      -5.6012      1.00000
     31      -5.5967      1.00000
     32      -5.5853      1.00000
     33      -5.5212      1.00000
     34      -5.5024      1.00000
     35      -5.4382      1.00000
     36      -5.2528      1.00000
     37      -5.1766      1.00000
     38      -5.1659      1.00000
     39      -5.1376      1.00000
     40      -5.0687      1.00000
     41      -5.0525      1.00000
     42      -5.0060      1.00000
     43      -5.0036      1.00000
     44      -4.9725      1.00000
     45      -4.8925      1.00000
     46      -4.8065      1.00000
     47      -4.7971      1.00000
     48      -4.7369      1.00000
     49      -4.7112      1.00000
     50      -4.6923      1.00000
     51      -4.6798      1.00000
     52      -4.6750      1.00000
     53      -4.6300      1.00000
     54      -4.6130      1.00000
     55      -4.5609      1.00000
     56      -4.5436      1.00000
     57      -4.5162      1.00000
     58      -4.4916      1.00000
     59      -4.4274      1.00000
     60      -4.4183      1.00000
     61      -4.4063      1.00000
     62      -4.3732      1.00000
     63      -4.2780      1.00000
     64      -4.1913      1.00000
     65      -3.3052      1.00000
     66      -3.0090      0.92199
     67      -2.9223      0.32276
     68      -2.9211      0.31310
     69      -1.8391      0.00000
     70      -1.8063      0.00000
     71      -1.2912      0.00000
     72      -0.5011      0.00000
     73      -0.3184      0.00000
     74      -0.2598      0.00000
     75       1.9091      0.00000
     76       1.9661      0.00000
     77       2.0254      0.00000
     78       2.2950      0.00000
     79       2.5099      0.00000
     80       2.6865      0.00000
     81       2.8460      0.00000
     82       2.9649      0.00000
     83       3.0432      0.00000
     84       3.2426      0.00000
     85       3.5702      0.00000
     86       3.9883      0.00000
     87       4.0824      0.00000
     88       4.2012      0.00000
     89       4.3413      0.00000
     90       4.9347      0.00000
     91       5.1810      0.00000
     92       5.4468      0.00000
     93       5.6701      0.00000
     94       5.8467      0.00000
     95       6.3183      0.00000
     96       6.6051      0.00000

 k-point     3 :       0.4000    0.0000    0.0000
  band No.  band energies     occupation 
      1     -10.3019      1.00000
      2      -9.0028      1.00000
      3      -8.4508      1.00000
      4      -7.6559      1.00000
      5      -7.3803      1.00000
      6      -7.3787      1.00000
      7      -7.2816      1.00000
      8      -7.1103      1.00000
      9      -7.1059      1.00000
     10      -6.9763      1.00000
     11      -6.8060      1.00000
     12      -6.8037      1.00000
     13      -6.5736      1.00000
     14      -6.5491      1.00000
     15      -6.5381      1.00000
     16      -6.3332      1.00000
     17      -6.2972      1.00000
     18      -6.2674      1.00000
     19      -6.2504      1.00000
     20      -6.1991      1.00000
     21      -6.1862      1.00000
     22      -6.1728      1.00000
     23      -5.9515      1.00000
     24      -5.9230      1.00000
     25      -5.7725      1.00000
     26      -5.7531      1.00000
     27      -5.7474      1.00000
     28      -5.6874      1.00000
     29      -5.6848      1.00000
     30      -5.6589      1.00000
     31      -5.6134      1.00000
     32      -5.5615      1.00000
     33      -5.5518      1.00000
     34      -5.5143      1.00000
     35      -5.4994      1.00000
     36      -5.4958      1.00000
     37      -5.4573      1.00000
     38      -5.4376      1.00000
     39      -5.4229      1.00000
     40      -5.4028      1.00000
     41      -5.3931      1.00000
     42      -5.2790      1.00000
     43      -5.1487      1.00000
     44      -5.1428      1.00000
     45      -5.1263      1.00000
     46      -5.0938      1.00000
     47      -5.0457      1.00000
     48      -5.0186      1.00000
     49      -4.9799      1.00000
     50      -4.9533      1.00000
     51      -4.8584      1.00000
     52      -4.8277      1.00000
     53      -4.7830      1.00000
     54      -4.7687      1.00000
     55      -4.7605      1.00000
     56      -4.7545      1.00000
     57      -4.7118      1.00000
     58      -4.5770      1.00000
     59      -4.5237      1.00000
     60      -4.5192      1.00000
     61      -4.4981      1.00000
     62      -4.4764      1.00000
     63      -4.4314      1.00000
     64      -4.4189      1.00000
     65      -3.6482      1.00000
     66      -2.9423      0.49941
     67      -2.9246      0.34091
     68      -2.6130      0.00001
     69      -1.8335      0.00000
     70      -1.7434      0.00000
     71      -1.5913      0.00000
     72      -0.3551      0.00000
     73       0.6376      0.00000
     74       0.7276      0.00000
     75       1.2940      0.00000
     76       2.8036      0.00000
     77       2.9612      0.00000
     78       2.9775      0.00000
     79       3.3622      0.00000
     80       3.6011      0.00000
     81       3.9480      0.00000
     82       3.9564      0.00000
     83       4.0092      0.00000
     84       4.1514      0.00000
     85       4.4796      0.00000
     86       4.7416      0.00000
     87       4.8763      0.00000
     88       4.9004      0.00000
     89       4.9323      0.00000
     90       5.1224      0.00000
     91       5.4209      0.00000
     92       5.4718      0.00000
     93       5.6242      0.00000
     94       5.6370      0.00000
     95       5.8263      0.00000
     96       5.9974      0.00000

 k-point     4 :       0.4000    0.2000    0.0000
  band No.  band energies     occupation 
      1     -10.5953      1.00000
      2      -8.6919      1.00000
      3      -8.2072      1.00000
      4      -8.2019      1.00000
      5      -7.4324      1.00000
      6      -7.3771      1.00000
      7      -7.3746      1.00000
      8      -7.1709      1.00000
      9      -7.0649      1.00000
     10      -6.9179      1.00000
     11      -6.9129      1.00000
     12      -6.8136      1.00000
     13      -6.6146      1.00000
     14      -6.6114      1.00000
     15      -6.5930      1.00000
     16      -6.3286      1.00000
     17      -6.3240      1.00000
     18      -6.2940      1.00000
     19      -6.2691      1.00000
     20      -6.1310      1.00000
     21      -6.0831      1.00000
     22      -5.9899      1.00000
     23      -5.9856      1.00000
     24      -5.9820      1.00000
     25      -5.8215      1.00000
     26      -5.7747      1.00000
     27      -5.7608      1.00000
     28      -5.7200      1.00000
     29      -5.6987      1.00000
     30      -5.6504      1.00000
     31      -5.6379      1.00000
     32      -5.6029      1.00000
     33      -5.5940      1.00000
     34      -5.5307      1.00000
     35      -5.3992      1.00000
     36      -5.3913      1.00000
     37      -5.3602      1.00000
     38      -5.3367      1.00000
     39      -5.3081      1.00000
     40      -5.2852      1.00000
     41      -5.2354      1.00000
     42      -5.2234      1.00000
     43      -5.2030      1.00000
     44      -5.1227      1.00000
     45      -5.0836      1.00000
     46      -5.0397      1.00000
     47      -5.0215      1.00000
     48      -4.9683      1.00000
     49      -4.9538      1.00000
     50      -4.9480      1.00000
     51      -4.8507      1.00000
     52      -4.7660      1.00000
     53      -4.7446      1.00000
     54      -4.6970      1.00000
     55      -4.6485      1.00000
     56      -4.6175      1.00000
     57      -4.5706      1.00000
     58      -4.5632      1.00000
     59      -4.5450      1.00000
     60      -4.5326      1.00000
     61      -4.5305      1.00000
     62      -4.4979      1.00000
     63      -4.1947      1.00000
     64      -4.1931      1.00000
     65      -3.9288      1.00000
     66      -3.5364      1.00000
     67      -3.4614      1.00000
     68      -2.5768      0.00000
     69      -1.1439      0.00000
     70      -1.0967      0.00000
     71      -0.9967      0.00000
     72      -0.4823      0.00000
     73      -0.3007      0.00000
     74       0.2371      0.00000
     75       2.1170      0.00000
     76       2.2579      0.00000
     77       2.2596      0.00000
     78       2.6514      0.00000
     79       3.2618      0.00000
     80       3.2970      0.00000
     81       3.6380      0.00000
     82       3.7149      0.00000
     83       3.9198      0.00000
     84       4.0798      0.00000
     85       4.1808      0.00000
     86       4.3517      0.00000
     87       4.6136      0.00000
     88       4.6665      0.00000
     89       5.0561      0.00000
     90       5.3974      0.00000
     91       5.5955      0.00000
     92       5.7264      0.00000
     93       5.8358      0.00000
     94       5.9668      0.00000
     95       6.1163      0.00000
     96       6.1700      0.00000

 k-point     5 :      -0.4000    0.2000    0.0000
  band No.  band energies     occupation 
      1      -9.4713      1.00000
      2      -9.4663      1.00000
      3      -8.3031      1.00000
      4      -7.8451      1.00000
      5      -7.8346      1.00000
      6      -7.2881      1.00000
      7      -6.9105      1.00000
      8      -6.9073      1.00000
      9      -6.8781      1.00000
     10      -6.8678      1.00000
     11      -6.7032      1.00000
     12      -6.6607      1.00000
     13      -6.6046      1.00000
     14      -6.5798      1.00000
     15      -6.4551      1.00000
     16      -6.4346      1.00000
     17      -6.4290      1.00000
     18      -6.3431      1.00000
     19      -6.3290      1.00000
     20      -6.1914      1.00000
     21      -6.0785      1.00000
     22      -6.0362      1.00000
     23      -5.9828      1.00000
     24      -5.9661      1.00000
     25      -5.9548      1.00000
     26      -5.9017      1.00000
     27      -5.8828      1.00000
     28      -5.8789      1.00000
     29      -5.8090      1.00000
     30      -5.7905      1.00000
     31      -5.7015      1.00000
     32      -5.6311      1.00000
     33      -5.6027      1.00000
     34      -5.5887      1.00000
     35      -5.5784      1.00000
     36      -5.5482      1.00000
     37      -5.5428      1.00000
     38      -5.5338      1.00000
     39      -5.4326      1.00000
     40      -5.4177      1.00000
     41      -5.3530      1.00000
     42      -5.2911      1.00000
     43      -5.1771      1.00000
     44      -5.1311      1.00000
     45      -5.0933      1.00000
     46      -5.0893      1.00000
     47      -5.0447      1.00000
     48      -5.0224      1.00000
     49      -4.9552      1.00000
     50      -4.9117      1.00000
     51      -4.8624      1.00000
     52      -4.7918      1.00000
     53      -4.7872      1.00000
     54      -4.7322      1.00000
     55      -4.7249      1.00000
     56      -4.7112      1.00000
     57      -4.6726      1.00000
     58      -4.5918      1.00000
     59      -4.5841      1.00000
     60      -4.5643      1.00000
     61      -4.5528      1.00000
     62      -4.5273      1.00000
     63      -4.4884      1.00000
     64      -4.4243      1.00000
     65      -4.1277      1.00000
     66      -3.6732      1.00000
     67      -3.2631      0.99999
     68      -2.3860      0.00000
     69      -1.8056      0.00000
     70      -0.9321      0.00000
     71      -0.8588      0.00000
     72       0.3146      0.00000
     73       0.5910      0.00000
     74       0.9296      0.00000
     75       1.8847      0.00000
     76       2.0362      0.00000
     77       2.1854      0.00000
     78       3.3847      0.00000
     79       3.4307      0.00000
     80       3.7499      0.00000
     81       3.8275      0.00000
     82       4.1322      0.00000
     83       4.3387      0.00000
     84       4.5112      0.00000
     85       4.5236      0.00000
     86       4.6333      0.00000
     87       4.8555      0.00000
     88       4.8805      0.00000
     89       4.9412      0.00000
     90       5.0530      0.00000
     91       5.3672      0.00000
     92       5.6039      0.00000
     93       5.7632      0.00000
     94       5.7726      0.00000
     95       5.8288      0.00000
     96       5.8882      0.00000
 Fermi energy:        -2.9423558165

 spin component 2

 k-point     1 :       0.0000    0.0000    0.0000
  band No.  band energies     occupation 
      1     -11.5257      1.00000
      2      -9.5382      1.00000
      3      -8.0805      1.00000
      4      -7.6525      1.00000
      5      -7.6523      1.00000
      6      -7.6523      1.00000
      7      -7.4280      1.00000
      8      -7.4280      1.00000
      9      -7.4193      1.00000
     10      -7.0449      1.00000
     11      -7.0447      1.00000
     12      -7.0447      1.00000
     13      -6.9846      1.00000
     14      -6.9846      1.00000
     15      -6.9715      1.00000
     16      -6.3268      1.00000
     17      -6.3268      1.00000
     18      -6.3077      1.00000
     19      -5.9932      1.00000
     20      -5.9881      1.00000
     21      -5.9881      1.00000
     22      -5.9316      1.00000
     23      -5.9131      1.00000
     24      -5.9131      1.00000
     25      -5.8807      1.00000
     26      -5.6753      1.00000
     27      -5.6753      1.00000
     28      -5.6704      1.00000
     29      -5.6704      1.00000
     30      -5.6586      1.00000
     31      -5.5463      1.00000
     32      -5.5463      1.00000
     33      -5.5203      1.00000
     34      -5.4153      1.00000
     35      -5.4153      1.00000
     36      -5.0461      1.00000
     37      -5.0461      1.00000
     38      -5.0196      1.00000
     39      -5.0160      1.00000
     40      -5.0160      1.00000
     41      -4.9830      1.00000
     42      -4.9830      1.00000
     43      -4.9471      1.00000
     44      -4.9342      1.00000
     45      -4.7286      1.00000
     46      -4.7286      1.00000
     47      -4.6133      1.00000
     48      -4.6133      1.00000
     49      -4.6001      1.00000
     50      -4.5423      1.00000
     51      -4.5423      1.00000
     52      -4.5274      1.00000
     53      -4.5206      1.00000
     54      -4.5206      1.00000
     55      -4.5143      1.00000
     56      -4.5130      1.00000
     57      -4.5130      1.00000
     58      -4.2954      1.00000
     59      -4.2954      1.00000
     60      -4.2864      1.00000
     61      -4.2769      1.00000
     62      -4.2769      1.00000
     63      -4.2285      1.00000
     64      -3.5654      1.00000
     65      -2.8567      0.04027
     66      -2.8524      0.03452
     67      -2.8524      0.03451
     68      -1.7407      0.00000
     69      -1.7372      0.00000
     70      -1.7372      0.00000
     71      -1.4939      0.00000
     72      -1.3281      0.00000
     73      -1.3162      0.00000
     74      -1.3162      0.00000
     75       1.5686      0.00000
     76       1.6034      0.00000
     77       1.6034      0.00000
     78       1.7170      0.00000
     79       2.2489      0.00000
     80       2.4097      0.00000
     81       2.7463      0.00000
     82       2.8328      0.00000
     83       2.8328      0.00000
     84       2.9709      0.00000
     85       3.2238      0.00000
     86       3.6043      0.00000
     87       3.6043      0.00000
     88       3.6385      0.00000
     89       3.7786      0.00000
     90       4.5182      0.00000
     91       4.9108      0.00000
     92       5.2298      0.00000
     93       6.0570      0.00000
     94       6.0570      0.00000
     95       6.2961      0.00000
     96       6.3676      0.00000

 k-point     2 :       0.2000    0.0000    0.0000
  band No.  band energies     occupation 
      1     -11.2092      1.00000
      2      -9.2425      1.00000
      3      -7.9382      1.00000
      4      -7.8455      1.00000
      5      -7.5695      1.00000
      6      -7.5691      1.00000
      7      -7.4348      1.00000
      8      -7.3253      1.00000
      9      -7.3202      1.00000
     10      -7.0520      1.00000
     11      -6.9839      1.00000
     12      -6.9833      1.00000
     13      -6.8346      1.00000
     14      -6.8184      1.00000
     15      -6.8083      1.00000
     16      -6.3240      1.00000
     17      -6.3131      1.00000
     18      -6.2962      1.00000
     19      -6.0850      1.00000
     20      -5.9547      1.00000
     21      -5.9382      1.00000
     22      -5.9303      1.00000
     23      -5.9291      1.00000
     24      -5.9081      1.00000
     25      -5.8445      1.00000
     26      -5.8145      1.00000
     27      -5.8067      1.00000
     28      -5.6720      1.00000
     29      -5.6367      1.00000
     30      -5.6013      1.00000
     31      -5.5967      1.00000
     32      -5.5853      1.00000
     33      -5.5213      1.00000
     34      -5.5025      1.00000
     35      -5.4382      1.00000
     36      -5.2527      1.00000
     37      -5.1766      1.00000
     38      -5.1659      1.00000
     39      -5.1377      1.00000
     40      -5.0687      1.00000
     41      -5.0525      1.00000
     42      -5.0060      1.00000
     43      -5.0037      1.00000
     44      -4.9725      1.00000
     45      -4.8925      1.00000
     46      -4.8065      1.00000
     47      -4.7971      1.00000
     48      -4.7369      1.00000
     49      -4.7112      1.00000
     50      -4.6923      1.00000
     51      -4.6798      1.00000
     52      -4.6750      1.00000
     53      -4.6300      1.00000
     54      -4.6130      1.00000
     55      -4.5609      1.00000
     56      -4.5436      1.00000
     57      -4.5162      1.00000
     58      -4.4916      1.00000
     59      -4.4274      1.00000
     60      -4.4183      1.00000
     61      -4.4064      1.00000
     62      -4.3732      1.00000
     63      -4.2780      1.00000
     64      -4.1912      1.00000
     65      -3.3051      1.00000
     66      -3.0088      0.92146
     67      -2.9224      0.32314
     68      -2.9211      0.31313
     69      -1.8391      0.00000
     70      -1.8064      0.00000
     71      -1.2909      0.00000
     72      -0.5011      0.00000
     73      -0.3184      0.00000
     74      -0.2598      0.00000
     75       1.9071      0.00000
     76       1.9660      0.00000
     77       2.0230      0.00000
     78       2.2958      0.00000
     79       2.5171      0.00000
     80       2.7139      0.00000
     81       2.8460      0.00000
     82       2.9690      0.00000
     83       3.0573      0.00000
     84       3.2575      0.00000
     85       3.5769      0.00000
     86       4.0014      0.00000
     87       4.0941      0.00000
     88       4.2036      0.00000
     89       4.3413      0.00000
     90       4.9400      0.00000
     91       5.1991      0.00000
     92       5.4542      0.00000
     93       5.6701      0.00000
     94       5.8473      0.00000
     95       6.3209      0.00000
     96       6.6147      0.00000

 k-point     3 :       0.4000    0.0000    0.0000
  band No.  band energies     occupation 
      1     -10.3020      1.00000
      2      -9.0028      1.00000
      3      -8.4508      1.00000
      4      -7.6560      1.00000
      5      -7.3804      1.00000
      6      -7.3788      1.00000
      7      -7.2817      1.00000
      8      -7.1104      1.00000
      9      -7.1059      1.00000
     10      -6.9763      1.00000
     11      -6.8060      1.00000
     12      -6.8037      1.00000
     13      -6.5736      1.00000
     14      -6.5491      1.00000
     15      -6.5381      1.00000
     16      -6.3332      1.00000
     17      -6.2972      1.00000
     18      -6.2674      1.00000
     19      -6.2504      1.00000
     20      -6.1991      1.00000
     21      -6.1862      1.00000
     22      -6.1728      1.00000
     23      -5.9515      1.00000
     24      -5.9231      1.00000
     25      -5.7725      1.00000
     26      -5.7531      1.00000
     27      -5.7474      1.00000
     28      -5.6874      1.00000
     29      -5.6848      1.00000
     30      -5.6589      1.00000
     31      -5.6134      1.00000
     32      -5.5616      1.00000
     33      -5.5518      1.00000
     34      -5.5143      1.00000
     35      -5.4995      1.00000
     36      -5.4958      1.00000
     37      -5.4573      1.00000
     38      -5.4376      1.00000
     39      -5.4230      1.00000
     40      -5.4029      1.00000
     41      -5.3931      1.00000
     42      -5.2789      1.00000
     43      -5.1487      1.00000
     44      -5.1428      1.00000
     45      -5.1263      1.00000
     46      -5.0938      1.00000
     47      -5.0457      1.00000
     48      -5.0186      1.00000
     49      -4.9799      1.00000
     50      -4.9533      1.00000
     51      -4.8584      1.00000
     52      -4.8277      1.00000
     53      -4.7830      1.00000
     54      -4.7687      1.00000
     55      -4.7606      1.00000
     56      -4.7545      1.00000
     57      -4.7119      1.00000
     58      -4.5770      1.00000
     59      -4.5237      1.00000
     60      -4.5193      1.00000
     61      -4.4981      1.00000
     62      -4.4764      1.00000
     63      -4.4315      1.00000
     64      -4.4189      1.00000
     65      -3.6478      1.00000
     66      -2.9423      0.49979
     67      -2.9246      0.34125
     68      -2.6128      0.00001
     69      -1.8336      0.00000
     70      -1.7435      0.00000
     71      -1.5912      0.00000
     72      -0.3550      0.00000
     73       0.6375      0.00000
     74       0.7276      0.00000
     75       1.2941      0.00000
     76       2.8004      0.00000
     77       2.9612      0.00000
     78       2.9770      0.00000
     79       3.3697      0.00000
     80       3.6283      0.00000
     81       3.9509      0.00000
     82       3.9697      0.00000
     83       4.0092      0.00000
     84       4.1683      0.00000
     85       4.4803      0.00000
     86       4.7490      0.00000
     87       4.8898      0.00000
     88       4.9004      0.00000
     89       4.9421      0.00000
     90       5.1485      0.00000
     91       5.4342      0.00000
     92       5.4839      0.00000
     93       5.6339      0.00000
     94       5.6370      0.00000
     95       5.8328      0.00000
     96       6.0050      0.00000

 k-point     4 :       0.4000    0.2000    0.0000
  band No.  band energies     occupation 
      1     -10.5953      1.00000
      2      -8.6919      1.00000
      3      -8.2073      1.00000
      4      -8.2020      1.00000
      5      -7.4325      1.00000
      6      -7.3771      1.00000
      7      -7.3746      1.00000
      8      -7.1709      1.00000
      9      -7.0649      1.00000
     10      -6.9179      1.00000
     11      -6.9129      1.00000
     12      -6.8136      1.00000
     13      -6.6147      1.00000
     14      -6.6114      1.00000
     15      -6.5931      1.00000
     16      -6.3286      1.00000
     17      -6.3240      1.00000
     18      -6.2940      1.00000
     19      -6.2691      1.00000
     20      -6.1310      1.00000
     21      -6.0831      1.00000
     22      -5.9899      1.00000
     23      -5.9856      1.00000
     24      -5.9820      1.00000
     25      -5.8215      1.00000
     26      -5.7747      1.00000
     27      -5.7608      1.00000
     28      -5.7200      1.00000
     29      -5.6988      1.00000
     30      -5.6504      1.00000
     31      -5.6379      1.00000
     32      -5.6029      1.00000
     33      -5.5941      1.00000
     34      -5.5307      1.00000
     35      -5.3992      1.00000
     36      -5.3913      1.00000
     37      -5.3602      1.00000
     38      -5.3367      1.00000
     39      -5.3081      1.00000
     40      -5.2853      1.00000
     41      -5.2354      1.00000
     42      -5.2235      1.00000
     43      -5.2030      1.00000
     44      -5.1227      1.00000
     45      -5.0836      1.00000
     46      -5.0397      1.00000
     47      -5.0215      1.00000
     48      -4.9684      1.00000
     49      -4.9538      1.00000
     50      -4.9481      1.00000
     51      -4.8507      1.00000
     52      -4.7660      1.00000
     53      -4.7446      1.00000
     54      -4.6970      1.00000
     55      -4.6485      1.00000
     56      -4.6176      1.00000
     57      -4.5706      1.00000
     58      -4.5632      1.00000
     59      -4.5450      1.00000
     60      -4.5326      1.00000
     61      -4.5305      1.00000
     62      -4.4979      1.00000
     63      -4.1948      1.00000
     64      -4.1931      1.00000
     65      -3.9285      1.00000
     66      -3.5365      1.00000
     67      -3.4614      1.00000
     68      -2.5764      0.00000
     69      -1.1440      0.00000
     70      -1.0967      0.00000
     71      -0.9967      0.00000
     72      -0.4823      0.00000
     73      -0.3005      0.00000
     74       0.2370      0.00000
     75       2.1170      0.00000
     76       2.2578      0.00000
     77       2.2597      0.00000
     78       2.6475      0.00000
     79       3.2723      0.00000
     80       3.3241      0.00000
     81       3.6506      0.00000
     82       3.7217      0.00000
     83       3.9322      0.00000
     84       4.0797      0.00000
     85       4.1814      0.00000
     86       4.3578      0.00000
     87       4.6237      0.00000
     88       4.6814      0.00000
     89       5.0558      0.00000
     90       5.3975      0.00000
     91       5.5980      0.00000
     92       5.7396      0.00000
     93       5.8473      0.00000
     94       5.9665      0.00000
     95       6.1178      0.00000
     96       6.1744      0.00000

 k-point     5 :      -0.4000    0.2000    0.0000
  band No.  band energies     occupation 
      1      -9.4714      1.00000
      2      -9.4663      1.00000
      3      -8.3031      1.00000
      4      -7.8451      1.00000
      5      -7.8346      1.00000
      6      -7.2882      1.00000
      7      -6.9106      1.00000
      8      -6.9074      1.00000
      9      -6.8781      1.00000
     10      -6.8678      1.00000
     11      -6.7033      1.00000
     12      -6.6608      1.00000
     13      -6.6046      1.00000
     14      -6.5799      1.00000
     15      -6.4551      1.00000
     16      -6.4347      1.00000
     17      -6.4290      1.00000
     18      -6.3431      1.00000
     19      -6.3290      1.00000
     20      -6.1915      1.00000
     21      -6.0785      1.00000
     22      -6.0362      1.00000
     23      -5.9829      1.00000
     24      -5.9661      1.00000
     25      -5.9548      1.00000
     26      -5.9018      1.00000
     27      -5.8829      1.00000
     28      -5.8789      1.00000
     29      -5.8090      1.00000
     30      -5.7906      1.00000
     31      -5.7015      1.00000
     32      -5.6311      1.00000
     33      -5.6027      1.00000
     34      -5.5887      1.00000
     35      -5.5784      1.00000
     36      -5.5482      1.00000
     37      -5.5429      1.00000
     38      -5.5339      1.00000
     39      -5.4326      1.00000
     40      -5.4177      1.00000
     41      -5.3530      1.00000
     42      -5.2911      1.00000
     43      -5.1771      1.00000
     44      -5.1311      1.00000
     45      -5.0933      1.00000
     46      -5.0893      1.00000
     47      -5.0447      1.00000
     48      -5.0224      1.00000
     49      -4.9552      1.00000
     50      -4.9117      1.00000
     51      -4.8624      1.00000
     52      -4.7918      1.00000
     53      -4.7872      1.00000
     54      -4.7323      1.00000
     55      -4.7249      1.00000
     56      -4.7112      1.00000
     57      -4.6726      1.00000
     58      -4.5918      1.00000
     59      -4.5842      1.00000
     60      -4.5643      1.00000
     61      -4.5528      1.00000
     62      -4.5273      1.00000
     63      -4.4884      1.00000
     64      -4.4243      1.00000
     65      -4.1277      1.00000
     66      -3.6730      1.00000
     67      -3.2628      0.99999
     68      -2.3861      0.00000
     69      -1.8054      0.00000
     70      -0.9320      0.00000
     71      -0.8588      0.00000
     72       0.3146      0.00000
     73       0.5910      0.00000
     74       0.9297      0.00000
     75       1.8846      0.00000
     76       2.0361      0.00000
     77       2.1854      0.00000
     78       3.3841      0.00000
     79       3.4306      0.00000
     80       3.7468      0.00000
     81       3.8264      0.00000
     82       4.1340      0.00000
     83       4.3467      0.00000
     84       4.5370      0.00000
     85       4.5511      0.00000
     86       4.6339      0.00000
     87       4.8685      0.00000
     88       4.8960      0.00000
     89       4.9585      0.00000
     90       5.0739      0.00000
     91       5.3717      0.00000
     92       5.6101      0.00000
     93       5.7755      0.00000
     94       5.7956      0.00000
     95       5.8400      0.00000
     96       5.8973      0.00000


--------------------------------------------------------------------------------------------------------


 soft charge-density along one line, spin component           1
         0         1         2         3         4         5         6         7         8         9
 total charge-density along one line
 
 soft charge-density along one line, spin component           2
         0         1         2         3         4         5         6         7         8         9
 total charge-density along one line
 
 pseudopotential strength for first ion, spin component:           1
-10.375  -0.002  -0.004  -0.004   0.000   0.927   0.001   0.003
 -0.002 -10.340  -0.001   0.003  -0.003   0.001   0.898   0.001
 -0.004  -0.001 -10.335  -0.002  -0.002   0.003   0.001   0.893
 -0.004   0.003  -0.002 -10.336  -0.002   0.003  -0.003   0.002
  0.000  -0.003  -0.002  -0.002 -10.375  -0.000   0.002   0.002
  0.927   0.001   0.003   0.003  -0.000   6.337  -0.001  -0.002
  0.001   0.898   0.001  -0.003   0.002  -0.001   6.357  -0.001
  0.003   0.001   0.893   0.002   0.002  -0.002  -0.001   6.361
  0.003  -0.003   0.002   0.895   0.001  -0.002   0.002  -0.001
 -0.000   0.002   0.002   0.001   0.927   0.000  -0.001  -0.001
 -0.001   0.000  -0.007   0.001  -0.000   0.000  -0.000   0.002
 -0.001   0.001  -0.014   0.001  -0.001   0.001  -0.000   0.004
  0.001  -0.007  -0.000   0.000  -0.001  -0.001   0.008   0.000
  0.000   0.001  -0.006   0.002   0.000  -0.000  -0.001   0.007
  0.001   0.000  -0.001  -0.007   0.001  -0.000  -0.000   0.001
  0.002  -0.008  -0.001   0.000  -0.001  -0.001   0.010   0.000
  0.000   0.001  -0.007   0.002   0.000  -0.000  -0.001   0.009
  0.001   0.000  -0.001  -0.008   0.002  -0.000  -0.000   0.001
 pseudopotential strength for first ion, spin component:           2
-10.375  -0.002  -0.004  -0.004   0.000   0.927   0.001   0.003
 -0.002 -10.340  -0.001   0.003  -0.003   0.001   0.898   0.001
 -0.004  -0.001 -10.335  -0.002  -0.002   0.003   0.001   0.893
 -0.004   0.003  -0.002 -10.336  -0.002   0.003  -0.003   0.002
  0.000  -0.003  -0.002  -0.002 -10.375  -0.000   0.002   0.002
  0.927   0.001   0.003   0.003  -0.000   6.337  -0.001  -0.002
  0.001   0.898   0.001  -0.003   0.002  -0.001   6.357  -0.001
  0.003   0.001   0.893   0.002   0.002  -0.002  -0.001   6.361
  0.003  -0.003   0.002   0.895   0.001  -0.002   0.002  -0.001
 -0.000   0.002   0.002   0.001   0.927   0.000  -0.001  -0.001
 -0.001   0.000  -0.007   0.001  -0.000   0.000  -0.000   0.002
 -0.001   0.001  -0.014   0.001  -0.001   0.001  -0.000   0.004
  0.001  -0.007  -0.000   0.000  -0.001  -0.001   0.008   0.000
  0.000   0.001  -0.006   0.002   0.000  -0.000  -0.001   0.007
  0.001   0.000  -0.001  -0.007   0.001  -0.000  -0.000   0.001
  0.002  -0.008  -0.001   0.000  -0.001  -0.001   0.010   0.000
  0.000   0.001  -0.007   0.002   0.000  -0.000  -0.001   0.009
  0.001   0.000  -0.001  -0.008   0.002  -0.000  -0.000   0.001
 total augmentation occupancy for first ion, spin component:           1
  1.907  -0.001  -0.000  -0.004   0.000  -0.017   0.000   0.000   0.004  -0.000  -0.002  -0.001  -0.001   0.001   0.004   0.001
 -0.001   1.923  -0.002   0.001  -0.003   0.000  -0.033   0.001  -0.000   0.004  -0.005   0.000   0.008   0.001   0.001  -0.008
 -0.000  -0.002   1.921  -0.004  -0.000   0.000   0.001  -0.028   0.001   0.000   0.004   0.014  -0.001   0.053  -0.001  -0.000
 -0.004   0.001  -0.004   1.925  -0.001   0.004  -0.000   0.001  -0.034   0.000  -0.008   0.000   0.001   0.002   0.009   0.000
  0.000  -0.003  -0.000  -0.001   1.906  -0.000   0.004   0.000   0.000  -0.017  -0.001  -0.000   0.005   0.001  -0.001  -0.001
 -0.017   0.000   0.000   0.004  -0.000   0.014  -0.000   0.000   0.000   0.000   0.000   0.000   0.000  -0.000   0.003  -0.000
  0.000  -0.033   0.001  -0.000   0.004  -0.000   0.010  -0.000   0.000   0.000   0.001   0.000   0.017  -0.000  -0.000  -0.001
  0.000   0.001  -0.028   0.001   0.000   0.000  -0.000   0.013  -0.000   0.000  -0.045   0.002   0.000   0.022   0.000  -0.000
  0.004  -0.000   0.001  -0.034   0.000   0.000   0.000  -0.000   0.010  -0.000   0.002   0.000  -0.000  -0.001   0.017   0.000
 -0.000   0.004   0.000   0.000  -0.017   0.000   0.000   0.000  -0.000   0.014   0.000   0.000   0.003  -0.000   0.000  -0.000
 -0.002  -0.005   0.004  -0.008  -0.001   0.000   0.001  -0.045   0.002   0.000   1.704  -0.133  -0.002   0.128  -0.003   0.000
 -0.001   0.000   0.014   0.000  -0.000   0.000   0.000   0.002   0.000   0.000  -0.133   0.016  -0.000  -0.023  -0.000  -0.000
 -0.001   0.008  -0.001   0.001   0.005   0.000   0.017   0.000  -0.000   0.003  -0.002  -0.000   0.208   0.001   0.002  -0.013
  0.001   0.001   0.053   0.002   0.001  -0.000  -0.000   0.022  -0.001  -0.000   0.128  -0.023   0.001   0.128   0.002  -0.000
  0.004   0.001  -0.001   0.009  -0.001   0.003  -0.000   0.000   0.017   0.000  -0.003  -0.000   0.002   0.002   0.211  -0.000
  0.001  -0.008  -0.000   0.000  -0.001  -0.000  -0.001  -0.000   0.000  -0.000   0.000  -0.000  -0.013  -0.000  -0.000   0.001
  0.000   0.000  -0.012   0.001   0.000   0.000  -0.000  -0.001  -0.000   0.000  -0.019   0.002  -0.000  -0.008  -0.000  -0.000
 -0.000   0.000  -0.000  -0.008   0.001  -0.000   0.000  -0.000  -0.001  -0.000   0.000  -0.000  -0.000  -0.000  -0.013  -0.000
 total augmentation occupancy for first ion, spin component:           2
 -0.000   0.000   0.000   0.000   0.000   0.000  -0.000  -0.000  -0.000  -0.000   0.000   0.000  -0.000  -0.000  -0.000   0.000
  0.000  -0.000   0.000   0.000   0.000  -0.000   0.000  -0.000  -0.000  -0.000  -0.000   0.000   0.000  -0.000  -0.000   0.000
  0.000   0.000  -0.000   0.000   0.000  -0.000  -0.000   0.000  -0.000  -0.000   0.000  -0.000   0.000   0.000   0.000  -0.000
  0.000   0.000   0.000  -0.000   0.000  -0.000  -0.000  -0.000   0.000  -0.000  -0.000   0.000  -0.000  -0.000   0.000  -0.000
  0.000   0.000   0.000   0.000  -0.000  -0.000  -0.000  -0.000  -0.000   0.000   0.000   0.000  -0.000  -0.000  -0.000  -0.000
  0.000  -0.000  -0.000  -0.000  -0.000  -0.000   0.000   0.000   0.000   0.000  -0.000  -0.000   0.000   0.000   0.000  -0.000
 -0.000   0.000  -0.000  -0.000  -0.000   0.000  -0.000   0.000   0.000   0.000  -0.000  -0.000  -0.000   0.000   0.000  -0.000
 -0.000  -0.000   0.000  -0.000  -0.000   0.000   0.000  -0.000   0.000   0.000  -0.000   0.000  -0.000  -0.000  -0.000   0.000
 -0.000  -0.000  -0.000   0.000  -0.000   0.000   0.000   0.000  -0.000   0.000  -0.000  -0.000   0.000   0.000  -0.000  -0.000
 -0.000  -0.000  -0.000  -0.000   0.000   0.000   0.000   0.000   0.000  -0.000  -0.000  -0.000   0.000   0.000   0.000  -0.000
  0.000  -0.000   0.000  -0.000   0.000  -0.000  -0.000  -0.000  -0.000  -0.000  -0.000  -0.000   0.000   0.000   0.000   0.000
  0.000   0.000  -0.000   0.000   0.000  -0.000  -0.000   0.000  -0.000  -0.000  -0.000  -0.000   0.000  -0.000   0.000  -0.000
 -0.000   0.000   0.000  -0.000  -0.000   0.000  -0.000  -0.000   0.000   0.000   0.000   0.000  -0.000  -0.000  -0.000  -0.000
 -0.000  -0.000   0.000  -0.000  -0.000   0.000   0.000  -0.000   0.000   0.000   0.000  -0.000  -0.000   0.000  -0.000   0.000
 -0.000  -0.000   0.000   0.000  -0.000   0.000   0.000  -0.000  -0.000   0.000   0.000   0.000  -0.000  -0.000  -0.000   0.000
  0.000   0.000  -0.000  -0.000  -0.000  -0.000  -0.000   0.000  -0.000  -0.000   0.000  -0.000  -0.000   0.000   0.000  -0.000
 -0.000  -0.000   0.000  -0.000  -0.000   0.000   0.000  -0.000   0.000   0.000   0.000   0.000  -0.000  -0.000  -0.000   0.000
 -0.000  -0.000  -0.000  -0.000   0.000  -0.000  -0.000   0.000  -0.000  -0.000   0.000  -0.000   0.000   0.000  -0.000   0.000


------------------------ aborting loop because EDIFF is reached ----------------------------------------


    CHARGE:  cpu time      0.1068: real time      0.1077
    FORLOC:  cpu time      0.0019: real time      0.0019
    FORNL :  cpu time      0.2329: real time      0.2351
    STRESS:  cpu time      1.5379: real time      1.5514
    FORCOR:  cpu time      0.0378: real time      0.0380
    FORHAR:  cpu time      0.0044: real time      0.0044
    MIXING:  cpu time      0.0012: real time      0.0012
    OFIELD:  cpu time      0.0000: real time      0.0000

 ---------------------------------------------------------------------------------------------

         DFTD3 V3.0 Rev 1        
 Edisp (eV)   -4.67327

 E6    (eV) :    -2.5850
 E8    (eV) :    -2.0883
 % E8        : 44.69
    FORVDW:  cpu time      0.0095: real time      0.0099

  FORCE on cell =-STRESS in cart. coord.  units (eV):
  Direction    XX          YY          ZZ          XY          YZ          ZX
  --------------------------------------------------------------------------------------
  Alpha Z   137.59429   137.59429   137.59429
  Ewald  132201.27901132201.27901************    -0.00000    -0.00000    -0.00000
  Hartree136042.46948136042.46948************     0.00000    -0.00000    -0.00000
  E(xc)    -772.13901  -772.13887  -773.96818    -0.00012     0.00000     0.00000
  Local  ************************272914.87143     0.00202    -0.00000    -0.00000
  n-local  -255.84800  -270.06383  -269.35995    -8.71775    -0.09159     0.03254
  augment  1132.90947  1132.91154  1141.57697    -0.00180     0.00001     0.00002
  Kinetic  1077.23795  1076.65866  1088.69594    -0.61685    -0.78488     0.89569
  Fock        0.00000     0.00000     0.00000     0.00000     0.00000     0.00000
  vdW        -4.94443    -4.94443    -2.51842     0.00000    -0.00000    -0.00000
  -------------------------------------------------------------------------------------
  Total      -8.41525    -8.41525    -6.80825    -0.00000    -0.00000    -0.00000
  in kB     -17.43017   -17.43017   -14.10165    -0.00000    -0.00000    -0.00000
  external pressure =      -16.32 kB  Pullay stress =        0.00 kB


 VOLUME and BASIS-vectors are now :
 -----------------------------------------------------------------------------
  energy-cutoff  :      600.00
  volume of cell :      773.53
      direct lattice vectors                 reciprocal lattice vectors
     5.112382028  0.000000000  0.000000000     0.195603536 -0.112931754  0.000000000
     2.556191014  4.427452710  0.000000000     0.000000000  0.225863508  0.000000000
     0.000000000  0.000000000 34.174242446     0.000000000  0.000000000  0.029261804

  length of vectors
     5.112382028  5.112382028 34.174242446     0.225863508  0.225863508  0.029261804


 FORCES acting on ions
    electron-ion (+dipol)            ewald-force                    non-local-force                 convergence-correction
 -----------------------------------------------------------------------------------------------
   -.273E+00 -.158E+00 0.317E+04   0.142E-01 0.818E-02 -.317E+04   0.215E+00 0.124E+00 -.169E+01   0.559E-02 0.323E-02 0.764E-01
   0.273E+00 -.158E+00 0.317E+04   -.142E-01 0.818E-02 -.317E+04   -.215E+00 0.124E+00 -.169E+01   -.559E-02 0.323E-02 0.764E-01
   0.268E-05 0.315E+00 0.317E+04   -.417E-08 -.164E-01 -.317E+04   -.382E-17 -.248E+00 -.169E+01   0.110E-07 -.646E-02 0.764E-01
   0.254E-05 0.147E-05 0.318E+04   0.502E-08 0.461E-08 -.317E+04   0.182E-16 0.534E-17 -.277E+01   -.109E-09 -.627E-10 0.684E-01
   -.244E-05 -.880E+00 0.332E+02   -.579E-08 0.316E+00 -.329E+02   0.346E-17 0.518E+00 -.388E+00   0.151E-07 0.867E-02 0.110E+00
   -.229E-05 -.132E-05 0.324E+02   0.456E-08 -.820E-08 -.325E+02   -.349E-17 -.197E-17 0.926E-01   0.368E-09 0.213E-09 0.119E+00
   0.762E+00 0.440E+00 0.332E+02   -.274E+00 -.158E+00 -.329E+02   -.449E+00 -.259E+00 -.388E+00   -.751E-02 -.434E-02 0.110E+00
   -.762E+00 0.440E+00 0.332E+02   0.274E+00 -.158E+00 -.329E+02   0.449E+00 -.259E+00 -.388E+00   0.751E-02 -.434E-02 0.110E+00
   -.396E-06 -.229E-06 -.309E+04   -.618E-08 -.249E-08 0.309E+04   -.224E-17 -.126E-18 -.166E+00   0.166E-08 0.960E-09 0.122E+00
   -.224E-06 -.174E-01 -.311E+04   0.507E-08 -.823E-08 0.311E+04   0.136E-17 0.197E-01 0.352E+01   -.445E-08 0.706E-02 0.118E+00
   -.151E-01 0.870E-02 -.311E+04   -.496E-08 0.804E-08 0.311E+04   0.171E-01 -.987E-02 0.352E+01   0.612E-02 -.353E-02 0.118E+00
   0.151E-01 0.870E-02 -.311E+04   0.615E-08 0.222E-08 0.311E+04   -.171E-01 -.987E-02 0.352E+01   -.612E-02 -.353E-02 0.118E+00
   -.661E-07 -.382E-07 -.396E+03   -.782E-10 -.447E-10 0.395E+03   0.308E-19 -.160E-19 -.552E+00   0.154E-10 0.887E-11 0.196E-01
 -----------------------------------------------------------------------------------------------
   0.409E-06 0.240E-06 -.215E+01   0.994E-13 -.356E-13 0.455E-12   0.308E-19 -.160E-19 0.940E+00   0.612E-08 0.354E-08 0.124E+01
 
 
 POSITION                                       TOTAL-FORCE (eV/Angst)
 -----------------------------------------------------------------------------------
      1.27810      0.73791     15.00000        -0.038211     -0.022061      0.116388
      3.83429      0.73791     15.00000         0.038211     -0.022061      0.116388
      2.55619      2.95164     15.00000         0.000000      0.044122      0.116388
      5.11238      2.95164     15.00000        -0.000000      0.000000      0.146023
      5.11238      1.47582     17.08712        -0.000000     -0.037544      0.048948
      2.55619      1.47582     17.08712         0.000000      0.000000      0.089167
      6.39048      3.68954     17.08712         0.032514      0.018772      0.048948
      3.83429      3.68954     17.08712        -0.032514      0.018772      0.048948
      0.00000      0.00000     19.17424         0.000000      0.000000      1.287365
      2.55619      0.00000     19.17424         0.000000      0.009405     -0.062867
      1.27810      2.21373     19.17424         0.008145     -0.004703     -0.062867
      3.83429      2.21373     19.17424        -0.008145     -0.004703     -0.062867
      0.00000      0.00000     21.43937         0.000000      0.000000     -1.829962
 -----------------------------------------------------------------------------------
    total drift:                                0.000000      0.000000      0.029554


--------------------------------------------------------------------------------------------------------



  FREE ENERGIE OF THE ION-ELECTRON SYSTEM (eV)
  ---------------------------------------------------
  free  energy   TOTEN  =       -47.42494065 eV

  energy  without entropy=      -47.38685930  energy(sigma->0) =      -47.40589998
 
 d Force = 0.1356875E+00[ 0.139E+00, 0.133E+00]  d Energy = 0.1353606E+00 0.327E-03
 d Force =-0.2981607E+02[-0.299E+02,-0.297E+02]  d Ewald  =-0.2981561E+02-0.460E-03


--------------------------------------------------------------------------------------------------------


    POTLOK:  cpu time      0.0509: real time      0.0511


--------------------------------------------------------------------------------------------------------




--------------------------------------------------------------------------------------------------------


    WAVPRE:  cpu time      0.0044: real time      0.0216
    FEWALD:  cpu time      0.0003: real time      0.0003
    ORTHCH:  cpu time      0.2111: real time      0.2137
     LOOP+:  cpu time     14.8957: real time     15.0756


--------------------------------------- Iteration      5(   1)  ---------------------------------------


    POTLOK:  cpu time      0.0437: real time      0.0442
    SETDIJ:  cpu time      0.0067: real time      0.0067
     EDDAV:  cpu time      2.4601: real time      2.4847
       DOS:  cpu time      0.0008: real time      0.0008
    CHARGE:  cpu time      0.1148: real time      0.1159
    MIXING:  cpu time      0.0010: real time      0.0010
    --------------------------------------------
      LOOP:  cpu time      2.6272: real time      2.6533

 eigenvalue-minimisations  :  1920
 total energy-change (2. order) :-0.1089646E+01  (-0.7690311E+01)
 number of electron     133.0000045 magnetization      -0.0000254
 augmentation part       84.2844429 magnetization       0.0003021

 Broyden mixing:
  rms(total) = 0.20573E+00    rms(broyden)= 0.20570E+00
  rms(prec ) = 0.21176E+00
  weight for this iteration     100.00

 Free energy of the ion-electron system (eV)
  ---------------------------------------------------
  alpha Z        PSCENC =       137.59429322
  Ewald energy   TEWEN  =    123702.93287045
  -Hartree energ DENC   =   -139068.30309467
  -exchange      EXHF   =         0.00000000
  -V(xc)+E(xc)   XCENC  =       536.10057364
  PAW double counting   =     15584.43195553   -16875.52652627
  entropy T*S    EENTRO =        -0.03904991
  eigenvalues    EBANDS =      -765.24990981
  atomic energy  EATOM  =     16704.21750749
  Solvation  Ecorr_sol  =         0.00000000
  ---------------------------------------------------
  free energy    TOTEN  =       -43.84138032 eV

  energy without entropy =      -43.80233041  energy(sigma->0) =      -43.82185537


--------------------------------------------------------------------------------------------------------




--------------------------------------- Iteration      5(   2)  ---------------------------------------


    POTLOK:  cpu time      0.0472: real time      0.0553
    SETDIJ:  cpu time      0.0034: real time      0.0035
     EDDAV:  cpu time      3.0678: real time      3.0985
       DOS:  cpu time      0.0016: real time      0.0016
    CHARGE:  cpu time      0.1233: real time      0.1241
    MIXING:  cpu time      0.0010: real time      0.0010
    --------------------------------------------
      LOOP:  cpu time      3.2442: real time      3.2840

 eigenvalue-minimisations  :  2560
 total energy-change (2. order) :-0.8664939E-01  (-0.1503102E+00)
 number of electron     133.0000045 magnetization      -0.0000332
 augmentation part       84.2893715 magnetization       0.0001816

 Broyden mixing:
  rms(total) = 0.15090E+00    rms(broyden)= 0.15090E+00
  rms(prec ) = 0.15732E+00
  weight for this iteration     100.00

 eigenvalues of (default mixing * dielectric matrix)
  average eigenvalue GAMMA=   0.6528
  0.6528

 Free energy of the ion-electron system (eV)
  ---------------------------------------------------
  alpha Z        PSCENC =       137.59429322
  Ewald energy   TEWEN  =    123702.93287045
  -Hartree energ DENC   =   -139077.19429039
  -exchange      EXHF   =         0.00000000
  -V(xc)+E(xc)   XCENC  =       536.09498458
  PAW double counting   =     15611.02961565   -16902.32282967
  entropy T*S    EENTRO =        -0.03482800
  eigenvalues    EBANDS =      -756.24535305
  atomic energy  EATOM  =     16704.21750749
  Solvation  Ecorr_sol  =         0.00000000
  ---------------------------------------------------
  free energy    TOTEN  =       -43.92802971 eV

  energy without entropy =      -43.89320171  energy(sigma->0) =      -43.91061571


--------------------------------------------------------------------------------------------------------




--------------------------------------- Iteration      5(   3)  ---------------------------------------


    POTLOK:  cpu time      0.0454: real time      0.0487
    SETDIJ:  cpu time      0.0056: real time      0.0056
     EDDAV:  cpu time      2.6701: real time      2.6961
       DOS:  cpu time      0.0003: real time      0.0003
    CHARGE:  cpu time      0.1163: real time      0.1169
    MIXING:  cpu time      0.0008: real time      0.0008
    --------------------------------------------
      LOOP:  cpu time      2.8387: real time      2.8684

 eigenvalue-minimisations  :  2336
 total energy-change (2. order) : 0.2856084E-01  (-0.2657828E-01)
 number of electron     133.0000045 magnetization      -0.0000511
 augmentation part       84.2897954 magnetization       0.0001412

 Broyden mixing:
  rms(total) = 0.12725E+00    rms(broyden)= 0.12724E+00
  rms(prec ) = 0.13199E+00
  weight for this iteration     100.00

 eigenvalues of (default mixing * dielectric matrix)
  average eigenvalue GAMMA=   1.0486
  1.7256  0.3716

 Free energy of the ion-electron system (eV)
  ---------------------------------------------------
  alpha Z        PSCENC =       137.59429322
  Ewald energy   TEWEN  =    123702.93287045
  -Hartree energ DENC   =   -139080.42594617
  -exchange      EXHF   =         0.00000000
  -V(xc)+E(xc)   XCENC  =       536.10116753
  PAW double counting   =     15617.12264328   -16908.60021440
  entropy T*S    EENTRO =        -0.03999524
  eigenvalues    EBANDS =      -752.80179504
  atomic energy  EATOM  =     16704.21750749
  Solvation  Ecorr_sol  =         0.00000000
  ---------------------------------------------------
  free energy    TOTEN  =       -43.89946888 eV

  energy without entropy =      -43.85947364  energy(sigma->0) =      -43.87947126


--------------------------------------------------------------------------------------------------------




--------------------------------------- Iteration      5(   4)  ---------------------------------------


    POTLOK:  cpu time      0.0442: real time      0.0451
    SETDIJ:  cpu time      0.0031: real time      0.0031
     EDDAV:  cpu time      3.3968: real time      3.4274
       DOS:  cpu time      0.0013: real time      0.0013
    CHARGE:  cpu time      0.1081: real time      0.1091
    MIXING:  cpu time      0.0009: real time      0.0009
    --------------------------------------------
      LOOP:  cpu time      3.5544: real time      3.5868

 eigenvalue-minimisations  :  3200
 total energy-change (2. order) : 0.2134152E-01  (-0.9171698E-02)
 number of electron     133.0000045 magnetization      -0.0000581
 augmentation part       84.2782569 magnetization       0.0000800

 Broyden mixing:
  rms(total) = 0.51509E-01    rms(broyden)= 0.51503E-01
  rms(prec ) = 0.54375E-01
  weight for this iteration     100.00

 eigenvalues of (default mixing * dielectric matrix)
  average eigenvalue GAMMA=   0.9431
  1.9917  0.4732  0.3645

 Free energy of the ion-electron system (eV)
  ---------------------------------------------------
  alpha Z        PSCENC =       137.59429322
  Ewald energy   TEWEN  =    123702.93287045
  -Hartree energ DENC   =   -139090.59556157
  -exchange      EXHF   =         0.00000000
  -V(xc)+E(xc)   XCENC  =       536.11809998
  PAW double counting   =     15629.04031044   -16920.85465942
  entropy T*S    EENTRO =        -0.03648459
  eigenvalues    EBANDS =      -742.29450336
  atomic energy  EATOM  =     16704.21750749
  Solvation  Ecorr_sol  =         0.00000000
  ---------------------------------------------------
  free energy    TOTEN  =       -43.87812736 eV

  energy without entropy =      -43.84164277  energy(sigma->0) =      -43.85988507


--------------------------------------------------------------------------------------------------------




--------------------------------------- Iteration      5(   5)  ---------------------------------------


    POTLOK:  cpu time      0.0452: real time      0.0458
    SETDIJ:  cpu time      0.0031: real time      0.0031
     EDDAV:  cpu time      3.4488: real time      3.4806
       DOS:  cpu time      0.0003: real time      0.0003
    CHARGE:  cpu time      0.1060: real time      0.1064
    MIXING:  cpu time      0.0009: real time      0.0009
    --------------------------------------------
      LOOP:  cpu time      3.6043: real time      3.6372

 eigenvalue-minimisations  :  3168
 total energy-change (2. order) : 0.4059609E-02  (-0.2742988E-02)
 number of electron     133.0000045 magnetization      -0.0000665
 augmentation part       84.2804322 magnetization       0.0000860

 Broyden mixing:
  rms(total) = 0.21363E-01    rms(broyden)= 0.21360E-01
  rms(prec ) = 0.23012E-01
  weight for this iteration     100.00

 eigenvalues of (default mixing * dielectric matrix)
  average eigenvalue GAMMA=   0.9454
  2.1865  0.8458  0.4051  0.3443

 Free energy of the ion-electron system (eV)
  ---------------------------------------------------
  alpha Z        PSCENC =       137.59429322
  Ewald energy   TEWEN  =    123702.93287045
  -Hartree energ DENC   =   -139094.20186932
  -exchange      EXHF   =         0.00000000
  -V(xc)+E(xc)   XCENC  =       536.11283393
  PAW double counting   =     15631.18730653   -16922.98747285
  entropy T*S    EENTRO =        -0.03967272
  eigenvalues    EBANDS =      -738.68986448
  atomic energy  EATOM  =     16704.21750749
  Solvation  Ecorr_sol  =         0.00000000
  ---------------------------------------------------
  free energy    TOTEN  =       -43.87406775 eV

  energy without entropy =      -43.83439503  energy(sigma->0) =      -43.85423139


--------------------------------------------------------------------------------------------------------




--------------------------------------- Iteration      5(   6)  ---------------------------------------


    POTLOK:  cpu time      0.0447: real time      0.0453
    SETDIJ:  cpu time      0.0031: real time      0.0031
     EDDAV:  cpu time      3.4555: real time      3.4873
       DOS:  cpu time      0.0013: real time      0.0014
    CHARGE:  cpu time      0.1086: real time      0.1094
    MIXING:  cpu time      0.0022: real time      0.0022
    --------------------------------------------
      LOOP:  cpu time      3.6155: real time      3.6487

 eigenvalue-minimisations  :  3200
 total energy-change (2. order) : 0.1425462E-02  (-0.3578777E-03)
 number of electron     133.0000045 magnetization      -0.0000744
 augmentation part       84.2873112 magnetization       0.0000668

 Broyden mixing:
  rms(total) = 0.89777E-02    rms(broyden)= 0.89774E-02
  rms(prec ) = 0.10509E-01
  weight for this iteration     100.00

 eigenvalues of (default mixing * dielectric matrix)
  average eigenvalue GAMMA=   0.9663
  2.2431  0.9552  0.8808  0.4105  0.3417

 Free energy of the ion-electron system (eV)
  ---------------------------------------------------
  alpha Z        PSCENC =       137.59429322
  Ewald energy   TEWEN  =    123702.93287045
  -Hartree energ DENC   =   -139097.31240479
  -exchange      EXHF   =         0.00000000
  -V(xc)+E(xc)   XCENC  =       536.10674945
  PAW double counting   =     15631.24341679   -16922.96727593
  entropy T*S    EENTRO =        -0.03896749
  eigenvalues    EBANDS =      -735.64883148
  atomic energy  EATOM  =     16704.21750749
  Solvation  Ecorr_sol  =         0.00000000
  ---------------------------------------------------
  free energy    TOTEN  =       -43.87264229 eV

  energy without entropy =      -43.83367480  energy(sigma->0) =      -43.85315854


--------------------------------------------------------------------------------------------------------




--------------------------------------- Iteration      5(   7)  ---------------------------------------


    POTLOK:  cpu time      0.0440: real time      0.0446
    SETDIJ:  cpu time      0.0031: real time      0.0031
     EDDAV:  cpu time      3.4061: real time      3.4364
       DOS:  cpu time      0.0003: real time      0.0003
    CHARGE:  cpu time      0.1068: real time      0.1076
    MIXING:  cpu time      0.0011: real time      0.0011
    --------------------------------------------
      LOOP:  cpu time      3.5614: real time      3.5932

 eigenvalue-minimisations  :  3200
 total energy-change (2. order) : 0.4990420E-03  (-0.1395648E-03)
 number of electron     133.0000045 magnetization      -0.0000824
 augmentation part       84.2817431 magnetization       0.0000530

 Broyden mixing:
  rms(total) = 0.83190E-02    rms(broyden)= 0.83188E-02
  rms(prec ) = 0.98064E-02
  weight for this iteration     100.00

 eigenvalues of (default mixing * dielectric matrix)
  average eigenvalue GAMMA=   1.0461
  2.3806  1.5928  1.0956  0.3447  0.4173  0.4456

 Free energy of the ion-electron system (eV)
  ---------------------------------------------------
  alpha Z        PSCENC =       137.59429322
  Ewald energy   TEWEN  =    123702.93287045
  -Hartree energ DENC   =   -139100.23285069
  -exchange      EXHF   =         0.00000000
  -V(xc)+E(xc)   XCENC  =       536.11718034
  PAW double counting   =     15630.25524735   -16921.99372598
  entropy T*S    EENTRO =        -0.03909395
  eigenvalues    EBANDS =      -732.72357149
  atomic energy  EATOM  =     16704.21750749
  Solvation  Ecorr_sol  =         0.00000000
  ---------------------------------------------------
  free energy    TOTEN  =       -43.87214325 eV

  energy without entropy =      -43.83304930  energy(sigma->0) =      -43.85259627


--------------------------------------------------------------------------------------------------------




--------------------------------------- Iteration      5(   8)  ---------------------------------------


    POTLOK:  cpu time      0.0433: real time      0.0439
    SETDIJ:  cpu time      0.0041: real time      0.0042
     EDDAV:  cpu time      2.7037: real time      2.7292
       DOS:  cpu time      0.0013: real time      0.0013
    CHARGE:  cpu time      0.1040: real time      0.1048
    MIXING:  cpu time      0.0012: real time      0.0012
    --------------------------------------------
      LOOP:  cpu time      2.8578: real time      2.8847

 eigenvalue-minimisations  :  2432
 total energy-change (2. order) : 0.3921431E-03  (-0.1524433E-03)
 number of electron     133.0000045 magnetization      -0.0000888
 augmentation part       84.2857110 magnetization       0.0000373

 Broyden mixing:
  rms(total) = 0.54663E-02    rms(broyden)= 0.54661E-02
  rms(prec ) = 0.69229E-02
  weight for this iteration     100.00

 eigenvalues of (default mixing * dielectric matrix)
  average eigenvalue GAMMA=   1.0539
  2.4305  1.7174  1.2626  0.8620  0.4041  0.3407  0.3601

 Free energy of the ion-electron system (eV)
  ---------------------------------------------------
  alpha Z        PSCENC =       137.59429322
  Ewald energy   TEWEN  =    123702.93287045
  -Hartree energ DENC   =   -139102.51194401
  -exchange      EXHF   =         0.00000000
  -V(xc)+E(xc)   XCENC  =       536.12127697
  PAW double counting   =     15628.84903093   -16920.54878267
  entropy T*S    EENTRO =        -0.03906905
  eigenvalues    EBANDS =      -730.48693443
  atomic energy  EATOM  =     16704.21750749
  Solvation  Ecorr_sol  =         0.00000000
  ---------------------------------------------------
  free energy    TOTEN  =       -43.87175111 eV

  energy without entropy =      -43.83268206  energy(sigma->0) =      -43.85221658


--------------------------------------------------------------------------------------------------------




--------------------------------------- Iteration      5(   9)  ---------------------------------------


    POTLOK:  cpu time      0.0445: real time      0.0452
    SETDIJ:  cpu time      0.0031: real time      0.0031
     EDDAV:  cpu time      2.1457: real time      2.1659
       DOS:  cpu time      0.0004: real time      0.0004
    CHARGE:  cpu time      0.1195: real time      0.1204
    MIXING:  cpu time      0.0016: real time      0.0016
    --------------------------------------------
      LOOP:  cpu time      2.3148: real time      2.3365

 eigenvalue-minimisations  :  1760
 total energy-change (2. order) : 0.1979957E-03  (-0.5585785E-04)
 number of electron     133.0000045 magnetization      -0.0000941
 augmentation part       84.2856155 magnetization       0.0000241

 Broyden mixing:
  rms(total) = 0.34466E-02    rms(broyden)= 0.34465E-02
  rms(prec ) = 0.43409E-02
  weight for this iteration     100.00

 eigenvalues of (default mixing * dielectric matrix)
  average eigenvalue GAMMA=   1.0501
  2.5512  2.1598  1.3036  0.8551  0.4644  0.4112  0.3451  0.3105

 Free energy of the ion-electron system (eV)
  ---------------------------------------------------
  alpha Z        PSCENC =       137.59429322
  Ewald energy   TEWEN  =    123702.93287045
  -Hartree energ DENC   =   -139104.40389271
  -exchange      EXHF   =         0.00000000
  -V(xc)+E(xc)   XCENC  =       536.12502721
  PAW double counting   =     15627.88677520   -16919.55838753
  entropy T*S    EENTRO =        -0.03909326
  eigenvalues    EBANDS =      -728.62665318
  atomic energy  EATOM  =     16704.21750749
  Solvation  Ecorr_sol  =         0.00000000
  ---------------------------------------------------
  free energy    TOTEN  =       -43.87155311 eV

  energy without entropy =      -43.83245985  energy(sigma->0) =      -43.85200648


--------------------------------------------------------------------------------------------------------




--------------------------------------- Iteration      5(  10)  ---------------------------------------


    POTLOK:  cpu time      0.0447: real time      0.0451
    SETDIJ:  cpu time      0.0031: real time      0.0031
     EDDAV:  cpu time      2.6211: real time      2.6455
       DOS:  cpu time      0.0019: real time      0.0019
    --------------------------------------------
      LOOP:  cpu time      2.6707: real time      2.6957

 eigenvalue-minimisations  :  2272
 total energy-change (2. order) : 0.6478481E-04  (-0.2749934E-04)
 number of electron     133.0000045 magnetization      -0.0000941
 augmentation part       84.2856155 magnetization       0.0000241

 Free energy of the ion-electron system (eV)
  ---------------------------------------------------
  alpha Z        PSCENC =       137.59429322
  Ewald energy   TEWEN  =    123702.93287045
  -Hartree energ DENC   =   -139106.04711106
  -exchange      EXHF   =         0.00000000
  -V(xc)+E(xc)   XCENC  =       536.12968390
  PAW double counting   =     15627.21399957   -16918.87952479
  entropy T*S    EENTRO =        -0.03917635
  eigenvalues    EBANDS =      -726.99403076
  atomic energy  EATOM  =     16704.21750749
  Solvation  Ecorr_sol  =         0.00000000
  ---------------------------------------------------
  free energy    TOTEN  =       -43.87148833 eV

  energy without entropy =      -43.83231198  energy(sigma->0) =      -43.85190015


--------------------------------------------------------------------------------------------------------




 average (electrostatic) potential at core
  the test charge radii are     0.9430  0.5201
  (the norm of the test charge is              1.0000)
       1 -73.6653       2 -73.6653       3 -73.6653       4 -73.7019       5 -73.9269
       6 -73.9226       7 -73.9269       8 -73.9269       9 -74.0834      10 -73.6001
      11 -73.6001      12 -73.6001      13 -38.5908
 
 
 
 E-fermi :  -2.6506     XC(G=0):  -3.0532     alpha+bet : -2.4952

 Fermi energy:        -2.6505631030

 spin component 1

 k-point     1 :       0.0000    0.0000    0.0000
  band No.  band energies     occupation 
      1     -11.2496      1.00000
      2      -9.3413      1.00000
      3      -7.8336      1.00000
      4      -7.3987      1.00000
      5      -7.3533      1.00000
      6      -7.3533      1.00000
      7      -7.1768      1.00000
      8      -7.1501      1.00000
      9      -7.1501      1.00000
     10      -6.8100      1.00000
     11      -6.7729      1.00000
     12      -6.7729      1.00000
     13      -6.7304      1.00000
     14      -6.7304      1.00000
     15      -6.7225      1.00000
     16      -6.4605      1.00000
     17      -6.1184      1.00000
     18      -6.1184      1.00000
     19      -6.0026      1.00000
     20      -5.7205      1.00000
     21      -5.7205      1.00000
     22      -5.6848      1.00000
     23      -5.6362      1.00000
     24      -5.5970      1.00000
     25      -5.5970      1.00000
     26      -5.4120      1.00000
     27      -5.4120      1.00000
     28      -5.3936      1.00000
     29      -5.3882      1.00000
     30      -5.3882      1.00000
     31      -5.3595      1.00000
     32      -5.2844      1.00000
     33      -5.2844      1.00000
     34      -5.1315      1.00000
     35      -5.1315      1.00000
     36      -4.9336      1.00000
     37      -4.8506      1.00000
     38      -4.8506      1.00000
     39      -4.7452      1.00000
     40      -4.7452      1.00000
     41      -4.7089      1.00000
     42      -4.7053      1.00000
     43      -4.7053      1.00000
     44      -4.6572      1.00000
     45      -4.4636      1.00000
     46      -4.4636      1.00000
     47      -4.3378      1.00000
     48      -4.3378      1.00000
     49      -4.2955      1.00000
     50      -4.2774      1.00000
     51      -4.2512      1.00000
     52      -4.2512      1.00000
     53      -4.2350      1.00000
     54      -4.2350      1.00000
     55      -4.2151      1.00000
     56      -4.2151      1.00000
     57      -4.2092      1.00000
     58      -4.0602      1.00000
     59      -4.0602      1.00000
     60      -4.0003      1.00000
     61      -4.0003      1.00000
     62      -3.9931      1.00000
     63      -3.9380      1.00000
     64      -3.2886      1.00000
     65      -2.5874      0.08802
     66      -2.5868      0.08608
     67      -2.5868      0.08606
     68      -1.4808      0.00000
     69      -1.4808      0.00000
     70      -1.4591      0.00000
     71      -1.0676      0.00000
     72      -1.0508      0.00000
     73      -1.0508      0.00000
     74      -0.6445      0.00000
     75       1.5825      0.00000
     76       1.8653      0.00000
     77       1.8653      0.00000
     78       1.8788      0.00000
     79       2.0585      0.00000
     80       2.1834      0.00000
     81       2.6987      0.00000
     82       2.7805      0.00000
     83       3.0509      0.00000
     84       3.0509      0.00000
     85       3.4138      0.00000
     86       3.5199      0.00000
     87       3.7018      0.00000
     88       3.8254      0.00000
     89       3.8255      0.00000
     90       4.6881      0.00000
     91       4.8418      0.00000
     92       5.6710      0.00000
     93       6.2596      0.00000
     94       6.2699      0.00000
     95       6.2699      0.00000
     96       6.3671      0.00000

 k-point     2 :       0.2000    0.0000    0.0000
  band No.  band energies     occupation 
      1     -10.9335      1.00000
      2      -9.0474      1.00000
      3      -7.6680      1.00000
      4      -7.5901      1.00000
      5      -7.3115      1.00000
      6      -7.2762      1.00000
      7      -7.1710      1.00000
      8      -7.0754      1.00000
      9      -7.0447      1.00000
     10      -6.7950      1.00000
     11      -6.7204      1.00000
     12      -6.7035      1.00000
     13      -6.6096      1.00000
     14      -6.5685      1.00000
     15      -6.5607      1.00000
     16      -6.4148      1.00000
     17      -6.1095      1.00000
     18      -6.0845      1.00000
     19      -5.9954      1.00000
     20      -5.7340      1.00000
     21      -5.6678      1.00000
     22      -5.6658      1.00000
     23      -5.6512      1.00000
     24      -5.6281      1.00000
     25      -5.6001      1.00000
     26      -5.5213      1.00000
     27      -5.4903      1.00000
     28      -5.4855      1.00000
     29      -5.3619      1.00000
     30      -5.3583      1.00000
     31      -5.3228      1.00000
     32      -5.3165      1.00000
     33      -5.2601      1.00000
     34      -5.2278      1.00000
     35      -5.1861      1.00000
     36      -5.1782      1.00000
     37      -4.9721      1.00000
     38      -4.9323      1.00000
     39      -4.8631      1.00000
     40      -4.7992      1.00000
     41      -4.7961      1.00000
     42      -4.7461      1.00000
     43      -4.7394      1.00000
     44      -4.6867      1.00000
     45      -4.6544      1.00000
     46      -4.5414      1.00000
     47      -4.5263      1.00000
     48      -4.4723      1.00000
     49      -4.4582      1.00000
     50      -4.3953      1.00000
     51      -4.3888      1.00000
     52      -4.3822      1.00000
     53      -4.3487      1.00000
     54      -4.3328      1.00000
     55      -4.3072      1.00000
     56      -4.2791      1.00000
     57      -4.2311      1.00000
     58      -4.2062      1.00000
     59      -4.1578      1.00000
     60      -4.1511      1.00000
     61      -4.1191      1.00000
     62      -4.0896      1.00000
     63      -4.0391      1.00000
     64      -3.9290      1.00000
     65      -3.0731      1.00000
     66      -2.6883      0.80180
     67      -2.6387      0.39222
     68      -2.6031      0.14706
     69      -1.6049      0.00000
     70      -1.5606      0.00000
     71      -0.8218      0.00000
     72      -0.1340      0.00000
     73      -0.0529      0.00000
     74       0.3986      0.00000
     75       1.8913      0.00000
     76       2.1907      0.00000
     77       2.2231      0.00000
     78       2.3450      0.00000
     79       2.4865      0.00000
     80       2.6294      0.00000
     81       3.0059      0.00000
     82       3.0544      0.00000
     83       3.0765      0.00000
     84       3.2386      0.00000
     85       3.7351      0.00000
     86       3.8758      0.00000
     87       4.0560      0.00000
     88       4.4016      0.00000
     89       4.5533      0.00000
     90       5.0049      0.00000
     91       5.1473      0.00000
     92       5.8960      0.00000
     93       5.9194      0.00000
     94       6.1341      0.00000
     95       6.4768      0.00000
     96       6.5677      0.00000

 k-point     3 :       0.4000    0.0000    0.0000
  band No.  band energies     occupation 
      1     -10.0281      1.00000
      2      -8.7346      1.00000
      3      -8.2536      1.00000
      4      -7.4384      1.00000
      5      -7.1280      1.00000
      6      -7.1022      1.00000
      7      -7.0117      1.00000
      8      -6.8907      1.00000
      9      -6.8234      1.00000
     10      -6.7006      1.00000
     11      -6.6006      1.00000
     12      -6.5042      1.00000
     13      -6.4120      1.00000
     14      -6.3059      1.00000
     15      -6.2923      1.00000
     16      -6.2183      1.00000
     17      -6.0387      1.00000
     18      -6.0259      1.00000
     19      -5.9841      1.00000
     20      -5.9740      1.00000
     21      -5.9012      1.00000
     22      -5.8910      1.00000
     23      -5.7835      1.00000
     24      -5.6637      1.00000
     25      -5.6525      1.00000
     26      -5.5264      1.00000
     27      -5.4981      1.00000
     28      -5.4903      1.00000
     29      -5.4722      1.00000
     30      -5.4134      1.00000
     31      -5.3779      1.00000
     32      -5.3378      1.00000
     33      -5.2902      1.00000
     34      -5.2788      1.00000
     35      -5.2477      1.00000
     36      -5.2309      1.00000
     37      -5.2228      1.00000
     38      -5.1627      1.00000
     39      -5.1497      1.00000
     40      -5.1283      1.00000
     41      -5.1282      1.00000
     42      -5.0636      1.00000
     43      -4.8838      1.00000
     44      -4.8730      1.00000
     45      -4.8540      1.00000
     46      -4.8289      1.00000
     47      -4.8053      1.00000
     48      -4.7513      1.00000
     49      -4.6915      1.00000
     50      -4.6566      1.00000
     51      -4.6286      1.00000
     52      -4.5927      1.00000
     53      -4.5079      1.00000
     54      -4.4841      1.00000
     55      -4.4807      1.00000
     56      -4.4672      1.00000
     57      -4.4335      1.00000
     58      -4.3445      1.00000
     59      -4.2621      1.00000
     60      -4.2292      1.00000
     61      -4.2088      1.00000
     62      -4.2051      1.00000
     63      -4.1433      1.00000
     64      -4.1343      1.00000
     65      -3.4252      1.00000
     66      -2.6696      0.66898
     67      -2.6354      0.36294
     68      -2.2962      0.00000
     69      -1.5767      0.00000
     70      -1.4928      0.00000
     71      -1.1272      0.00000
     72       0.1350      0.00000
     73       0.8721      0.00000
     74       1.0404      0.00000
     75       2.0788      0.00000
     76       2.8820      0.00000
     77       3.1272      0.00000
     78       3.2387      0.00000
     79       3.3411      0.00000
     80       3.4111      0.00000
     81       3.9232      0.00000
     82       3.9630      0.00000
     83       4.0415      0.00000
     84       4.2238      0.00000
     85       4.6384      0.00000
     86       4.7067      0.00000
     87       4.7955      0.00000
     88       4.9222      0.00000
     89       4.9604      0.00000
     90       5.1408      0.00000
     91       5.3297      0.00000
     92       5.4544      0.00000
     93       5.7892      0.00000
     94       5.9201      0.00000
     95       5.9213      0.00000
     96       5.9983      0.00000

 k-point     4 :       0.4000    0.2000    0.0000
  band No.  band energies     occupation 
      1     -10.3207      1.00000
      2      -8.5040      1.00000
      3      -7.9465      1.00000
      4      -7.9145      1.00000
      5      -7.2086      1.00000
      6      -7.1343      1.00000
      7      -7.0972      1.00000
      8      -6.8878      1.00000
      9      -6.8342      1.00000
     10      -6.6685      1.00000
     11      -6.6156      1.00000
     12      -6.5477      1.00000
     13      -6.4593      1.00000
     14      -6.3544      1.00000
     15      -6.3526      1.00000
     16      -6.2897      1.00000
     17      -6.0770      1.00000
     18      -6.0560      1.00000
     19      -6.0120      1.00000
     20      -5.9115      1.00000
     21      -5.8047      1.00000
     22      -5.7816      1.00000
     23      -5.7272      1.00000
     24      -5.7149      1.00000
     25      -5.6256      1.00000
     26      -5.5632      1.00000
     27      -5.5046      1.00000
     28      -5.4593      1.00000
     29      -5.4415      1.00000
     30      -5.4199      1.00000
     31      -5.4085      1.00000
     32      -5.3826      1.00000
     33      -5.3357      1.00000
     34      -5.2807      1.00000
     35      -5.2239      1.00000
     36      -5.1705      1.00000
     37      -5.1307      1.00000
     38      -5.0921      1.00000
     39      -5.0453      1.00000
     40      -5.0281      1.00000
     41      -4.9644      1.00000
     42      -4.9538      1.00000
     43      -4.9296      1.00000
     44      -4.8684      1.00000
     45      -4.8421      1.00000
     46      -4.7904      1.00000
     47      -4.7479      1.00000
     48      -4.6971      1.00000
     49      -4.6675      1.00000
     50      -4.6565      1.00000
     51      -4.5621      1.00000
     52      -4.5300      1.00000
     53      -4.4660      1.00000
     54      -4.4341      1.00000
     55      -4.3646      1.00000
     56      -4.3574      1.00000
     57      -4.2996      1.00000
     58      -4.2897      1.00000
     59      -4.2603      1.00000
     60      -4.2462      1.00000
     61      -4.2376      1.00000
     62      -4.2060      1.00000
     63      -3.9218      1.00000
     64      -3.9146      1.00000
     65      -3.7584      1.00000
     66      -3.2809      1.00000
     67      -3.1954      1.00000
     68      -2.1021      0.00000
     69      -0.9021      0.00000
     70      -0.8591      0.00000
     71      -0.7579      0.00000
     72      -0.2156      0.00000
     73       0.4739      0.00000
     74       0.7158      0.00000
     75       2.3558      0.00000
     76       2.3848      0.00000
     77       2.4681      0.00000
     78       2.8119      0.00000
     79       3.0876      0.00000
     80       3.2237      0.00000
     81       3.6210      0.00000
     82       3.6781      0.00000
     83       4.0755      0.00000
     84       4.3422      0.00000
     85       4.3966      0.00000
     86       4.4112      0.00000
     87       4.5485      0.00000
     88       4.9332      0.00000
     89       5.2227      0.00000
     90       5.5744      0.00000
     91       5.6209      0.00000
     92       5.7265      0.00000
     93       5.8829      0.00000
     94       5.9648      0.00000
     95       6.0882      0.00000
     96       6.1444      0.00000

 k-point     5 :      -0.4000    0.2000    0.0000
  band No.  band energies     occupation 
      1      -9.2183      1.00000
      2      -9.1763      1.00000
      3      -8.0448      1.00000
      4      -7.6972      1.00000
      5      -7.5575      1.00000
      6      -7.0512      1.00000
      7      -6.7062      1.00000
      8      -6.6372      1.00000
      9      -6.6057      1.00000
     10      -6.5905      1.00000
     11      -6.5523      1.00000
     12      -6.3664      1.00000
     13      -6.3294      1.00000
     14      -6.3124      1.00000
     15      -6.2767      1.00000
     16      -6.1491      1.00000
     17      -6.1243      1.00000
     18      -6.0910      1.00000
     19      -6.0575      1.00000
     20      -5.9712      1.00000
     21      -5.9433      1.00000
     22      -5.8325      1.00000
     23      -5.7935      1.00000
     24      -5.7326      1.00000
     25      -5.7034      1.00000
     26      -5.6801      1.00000
     27      -5.6579      1.00000
     28      -5.6270      1.00000
     29      -5.6116      1.00000
     30      -5.5507      1.00000
     31      -5.4873      1.00000
     32      -5.4420      1.00000
     33      -5.3938      1.00000
     34      -5.3544      1.00000
     35      -5.3338      1.00000
     36      -5.3062      1.00000
     37      -5.2609      1.00000
     38      -5.2515      1.00000
     39      -5.2218      1.00000
     40      -5.1471      1.00000
     41      -5.1123      1.00000
     42      -5.0047      1.00000
     43      -4.9293      1.00000
     44      -4.8723      1.00000
     45      -4.8206      1.00000
     46      -4.8007      1.00000
     47      -4.7673      1.00000
     48      -4.7365      1.00000
     49      -4.7137      1.00000
     50      -4.6482      1.00000
     51      -4.5893      1.00000
     52      -4.5445      1.00000
     53      -4.5044      1.00000
     54      -4.4993      1.00000
     55      -4.4495      1.00000
     56      -4.4252      1.00000
     57      -4.4155      1.00000
     58      -4.3249      1.00000
     59      -4.2983      1.00000
     60      -4.2860      1.00000
     61      -4.2673      1.00000
     62      -4.2315      1.00000
     63      -4.2120      1.00000
     64      -4.1555      1.00000
     65      -3.8497      1.00000
     66      -3.4716      1.00000
     67      -2.9636      0.99999
     68      -2.1561      0.00000
     69      -1.3340      0.00000
     70      -0.5858      0.00000
     71      -0.4005      0.00000
     72       0.5218      0.00000
     73       0.8324      0.00000
     74       1.6064      0.00000
     75       2.1542      0.00000
     76       2.3207      0.00000
     77       2.7932      0.00000
     78       3.5132      0.00000
     79       3.6188      0.00000
     80       3.9086      0.00000
     81       4.0109      0.00000
     82       4.0995      0.00000
     83       4.1980      0.00000
     84       4.3203      0.00000
     85       4.3339      0.00000
     86       4.7933      0.00000
     87       4.8119      0.00000
     88       4.8215      0.00000
     89       4.8679      0.00000
     90       4.8707      0.00000
     91       5.4505      0.00000
     92       5.5593      0.00000
     93       5.6471      0.00000
     94       5.6543      0.00000
     95       5.7337      0.00000
     96       5.8286      0.00000
 Fermi energy:        -2.6505631030

 spin component 2

 k-point     1 :       0.0000    0.0000    0.0000
  band No.  band energies     occupation 
      1     -11.2496      1.00000
      2      -9.3413      1.00000
      3      -7.8336      1.00000
      4      -7.3987      1.00000
      5      -7.3534      1.00000
      6      -7.3534      1.00000
      7      -7.1768      1.00000
      8      -7.1501      1.00000
      9      -7.1501      1.00000
     10      -6.8100      1.00000
     11      -6.7729      1.00000
     12      -6.7729      1.00000
     13      -6.7304      1.00000
     14      -6.7304      1.00000
     15      -6.7225      1.00000
     16      -6.4605      1.00000
     17      -6.1184      1.00000
     18      -6.1184      1.00000
     19      -6.0027      1.00000
     20      -5.7205      1.00000
     21      -5.7205      1.00000
     22      -5.6848      1.00000
     23      -5.6362      1.00000
     24      -5.5970      1.00000
     25      -5.5970      1.00000
     26      -5.4120      1.00000
     27      -5.4120      1.00000
     28      -5.3936      1.00000
     29      -5.3882      1.00000
     30      -5.3882      1.00000
     31      -5.3595      1.00000
     32      -5.2844      1.00000
     33      -5.2844      1.00000
     34      -5.1315      1.00000
     35      -5.1315      1.00000
     36      -4.9336      1.00000
     37      -4.8506      1.00000
     38      -4.8506      1.00000
     39      -4.7452      1.00000
     40      -4.7452      1.00000
     41      -4.7089      1.00000
     42      -4.7053      1.00000
     43      -4.7053      1.00000
     44      -4.6572      1.00000
     45      -4.4636      1.00000
     46      -4.4636      1.00000
     47      -4.3378      1.00000
     48      -4.3378      1.00000
     49      -4.2955      1.00000
     50      -4.2774      1.00000
     51      -4.2512      1.00000
     52      -4.2512      1.00000
     53      -4.2350      1.00000
     54      -4.2350      1.00000
     55      -4.2151      1.00000
     56      -4.2151      1.00000
     57      -4.2092      1.00000
     58      -4.0603      1.00000
     59      -4.0603      1.00000
     60      -4.0003      1.00000
     61      -4.0003      1.00000
     62      -3.9931      1.00000
     63      -3.9380      1.00000
     64      -3.2886      1.00000
     65      -2.5875      0.08807
     66      -2.5868      0.08614
     67      -2.5868      0.08612
     68      -1.4808      0.00000
     69      -1.4808      0.00000
     70      -1.4591      0.00000
     71      -1.0676      0.00000
     72      -1.0508      0.00000
     73      -1.0508      0.00000
     74      -0.6445      0.00000
     75       1.5822      0.00000
     76       1.8653      0.00000
     77       1.8653      0.00000
     78       1.8774      0.00000
     79       2.0591      0.00000
     80       2.1891      0.00000
     81       2.7026      0.00000
     82       2.7838      0.00000
     83       3.0509      0.00000
     84       3.0509      0.00000
     85       3.4155      0.00000
     86       3.5229      0.00000
     87       3.7016      0.00000
     88       3.8254      0.00000
     89       3.8254      0.00000
     90       4.6900      0.00000
     91       4.8450      0.00000
     92       5.6716      0.00000
     93       6.2604      0.00000
     94       6.2699      0.00000
     95       6.2699      0.00000
     96       6.3706      0.00000

 k-point     2 :       0.2000    0.0000    0.0000
  band No.  band energies     occupation 
      1     -10.9335      1.00000
      2      -9.0474      1.00000
      3      -7.6681      1.00000
      4      -7.5901      1.00000
      5      -7.3115      1.00000
      6      -7.2762      1.00000
      7      -7.1710      1.00000
      8      -7.0754      1.00000
      9      -7.0447      1.00000
     10      -6.7950      1.00000
     11      -6.7204      1.00000
     12      -6.7035      1.00000
     13      -6.6096      1.00000
     14      -6.5685      1.00000
     15      -6.5607      1.00000
     16      -6.4148      1.00000
     17      -6.1095      1.00000
     18      -6.0845      1.00000
     19      -5.9954      1.00000
     20      -5.7340      1.00000
     21      -5.6679      1.00000
     22      -5.6658      1.00000
     23      -5.6512      1.00000
     24      -5.6281      1.00000
     25      -5.6001      1.00000
     26      -5.5213      1.00000
     27      -5.4903      1.00000
     28      -5.4855      1.00000
     29      -5.3620      1.00000
     30      -5.3583      1.00000
     31      -5.3228      1.00000
     32      -5.3165      1.00000
     33      -5.2601      1.00000
     34      -5.2278      1.00000
     35      -5.1861      1.00000
     36      -5.1782      1.00000
     37      -4.9721      1.00000
     38      -4.9323      1.00000
     39      -4.8631      1.00000
     40      -4.7992      1.00000
     41      -4.7961      1.00000
     42      -4.7461      1.00000
     43      -4.7394      1.00000
     44      -4.6867      1.00000
     45      -4.6544      1.00000
     46      -4.5414      1.00000
     47      -4.5264      1.00000
     48      -4.4723      1.00000
     49      -4.4582      1.00000
     50      -4.3953      1.00000
     51      -4.3888      1.00000
     52      -4.3822      1.00000
     53      -4.3487      1.00000
     54      -4.3328      1.00000
     55      -4.3072      1.00000
     56      -4.2791      1.00000
     57      -4.2311      1.00000
     58      -4.2062      1.00000
     59      -4.1578      1.00000
     60      -4.1511      1.00000
     61      -4.1191      1.00000
     62      -4.0896      1.00000
     63      -4.0391      1.00000
     64      -3.9291      1.00000
     65      -3.0731      1.00000
     66      -2.6883      0.80191
     67      -2.6388      0.39237
     68      -2.6031      0.14717
     69      -1.6049      0.00000
     70      -1.5607      0.00000
     71      -0.8218      0.00000
     72      -0.1340      0.00000
     73      -0.0529      0.00000
     74       0.3986      0.00000
     75       1.8910      0.00000
     76       2.1895      0.00000
     77       2.2231      0.00000
     78       2.3454      0.00000
     79       2.4923      0.00000
     80       2.6295      0.00000
     81       3.0097      0.00000
     82       3.0573      0.00000
     83       3.0764      0.00000
     84       3.2387      0.00000
     85       3.7377      0.00000
     86       3.8779      0.00000
     87       4.0560      0.00000
     88       4.4015      0.00000
     89       4.5532      0.00000
     90       5.0068      0.00000
     91       5.1504      0.00000
     92       5.8959      0.00000
     93       5.9194      0.00000
     94       6.1340      0.00000
     95       6.4794      0.00000
     96       6.5684      0.00000

 k-point     3 :       0.4000    0.0000    0.0000
  band No.  band energies     occupation 
      1     -10.0281      1.00000
      2      -8.7346      1.00000
      3      -8.2537      1.00000
      4      -7.4384      1.00000
      5      -7.1280      1.00000
      6      -7.1022      1.00000
      7      -7.0117      1.00000
      8      -6.8907      1.00000
      9      -6.8234      1.00000
     10      -6.7006      1.00000
     11      -6.6007      1.00000
     12      -6.5042      1.00000
     13      -6.4120      1.00000
     14      -6.3059      1.00000
     15      -6.2923      1.00000
     16      -6.2183      1.00000
     17      -6.0387      1.00000
     18      -6.0259      1.00000
     19      -5.9841      1.00000
     20      -5.9740      1.00000
     21      -5.9012      1.00000
     22      -5.8910      1.00000
     23      -5.7835      1.00000
     24      -5.6637      1.00000
     25      -5.6525      1.00000
     26      -5.5264      1.00000
     27      -5.4981      1.00000
     28      -5.4903      1.00000
     29      -5.4722      1.00000
     30      -5.4134      1.00000
     31      -5.3779      1.00000
     32      -5.3378      1.00000
     33      -5.2902      1.00000
     34      -5.2788      1.00000
     35      -5.2477      1.00000
     36      -5.2309      1.00000
     37      -5.2228      1.00000
     38      -5.1627      1.00000
     39      -5.1497      1.00000
     40      -5.1283      1.00000
     41      -5.1282      1.00000
     42      -5.0636      1.00000
     43      -4.8838      1.00000
     44      -4.8730      1.00000
     45      -4.8540      1.00000
     46      -4.8289      1.00000
     47      -4.8053      1.00000
     48      -4.7513      1.00000
     49      -4.6915      1.00000
     50      -4.6567      1.00000
     51      -4.6286      1.00000
     52      -4.5927      1.00000
     53      -4.5079      1.00000
     54      -4.4841      1.00000
     55      -4.4807      1.00000
     56      -4.4672      1.00000
     57      -4.4335      1.00000
     58      -4.3445      1.00000
     59      -4.2621      1.00000
     60      -4.2292      1.00000
     61      -4.2088      1.00000
     62      -4.2051      1.00000
     63      -4.1433      1.00000
     64      -4.1343      1.00000
     65      -3.4252      1.00000
     66      -2.6696      0.66908
     67      -2.6354      0.36306
     68      -2.2963      0.00000
     69      -1.5767      0.00000
     70      -1.4929      0.00000
     71      -1.1272      0.00000
     72       0.1350      0.00000
     73       0.8720      0.00000
     74       1.0404      0.00000
     75       2.0787      0.00000
     76       2.8813      0.00000
     77       3.1267      0.00000
     78       3.2386      0.00000
     79       3.3421      0.00000
     80       3.4164      0.00000
     81       3.9259      0.00000
     82       3.9666      0.00000
     83       4.0414      0.00000
     84       4.2238      0.00000
     85       4.6387      0.00000
     86       4.7092      0.00000
     87       4.7968      0.00000
     88       4.9264      0.00000
     89       4.9620      0.00000
     90       5.1408      0.00000
     91       5.3321      0.00000
     92       5.4581      0.00000
     93       5.7897      0.00000
     94       5.9200      0.00000
     95       5.9233      0.00000
     96       6.0006      0.00000

 k-point     4 :       0.4000    0.2000    0.0000
  band No.  band energies     occupation 
      1     -10.3207      1.00000
      2      -8.5040      1.00000
      3      -7.9465      1.00000
      4      -7.9146      1.00000
      5      -7.2087      1.00000
      6      -7.1343      1.00000
      7      -7.0972      1.00000
      8      -6.8878      1.00000
      9      -6.8342      1.00000
     10      -6.6685      1.00000
     11      -6.6156      1.00000
     12      -6.5477      1.00000
     13      -6.4593      1.00000
     14      -6.3544      1.00000
     15      -6.3526      1.00000
     16      -6.2897      1.00000
     17      -6.0770      1.00000
     18      -6.0560      1.00000
     19      -6.0120      1.00000
     20      -5.9115      1.00000
     21      -5.8047      1.00000
     22      -5.7816      1.00000
     23      -5.7273      1.00000
     24      -5.7149      1.00000
     25      -5.6256      1.00000
     26      -5.5632      1.00000
     27      -5.5046      1.00000
     28      -5.4593      1.00000
     29      -5.4415      1.00000
     30      -5.4199      1.00000
     31      -5.4085      1.00000
     32      -5.3826      1.00000
     33      -5.3357      1.00000
     34      -5.2807      1.00000
     35      -5.2239      1.00000
     36      -5.1706      1.00000
     37      -5.1307      1.00000
     38      -5.0921      1.00000
     39      -5.0453      1.00000
     40      -5.0281      1.00000
     41      -4.9644      1.00000
     42      -4.9538      1.00000
     43      -4.9296      1.00000
     44      -4.8684      1.00000
     45      -4.8421      1.00000
     46      -4.7904      1.00000
     47      -4.7479      1.00000
     48      -4.6971      1.00000
     49      -4.6675      1.00000
     50      -4.6565      1.00000
     51      -4.5621      1.00000
     52      -4.5300      1.00000
     53      -4.4661      1.00000
     54      -4.4341      1.00000
     55      -4.3646      1.00000
     56      -4.3574      1.00000
     57      -4.2996      1.00000
     58      -4.2897      1.00000
     59      -4.2603      1.00000
     60      -4.2462      1.00000
     61      -4.2376      1.00000
     62      -4.2060      1.00000
     63      -3.9218      1.00000
     64      -3.9147      1.00000
     65      -3.7584      1.00000
     66      -3.2810      1.00000
     67      -3.1954      1.00000
     68      -2.1022      0.00000
     69      -0.9022      0.00000
     70      -0.8591      0.00000
     71      -0.7579      0.00000
     72      -0.2156      0.00000
     73       0.4739      0.00000
     74       0.7158      0.00000
     75       2.3557      0.00000
     76       2.3846      0.00000
     77       2.4680      0.00000
     78       2.8106      0.00000
     79       3.0931      0.00000
     80       3.2250      0.00000
     81       3.6244      0.00000
     82       3.6809      0.00000
     83       4.0755      0.00000
     84       4.3422      0.00000
     85       4.4000      0.00000
     86       4.4123      0.00000
     87       4.5485      0.00000
     88       4.9333      0.00000
     89       5.2223      0.00000
     90       5.5752      0.00000
     91       5.6229      0.00000
     92       5.7283      0.00000
     93       5.8830      0.00000
     94       5.9644      0.00000
     95       6.0893      0.00000
     96       6.1495      0.00000

 k-point     5 :      -0.4000    0.2000    0.0000
  band No.  band energies     occupation 
      1      -9.2183      1.00000
      2      -9.1763      1.00000
      3      -8.0448      1.00000
      4      -7.6972      1.00000
      5      -7.5575      1.00000
      6      -7.0512      1.00000
      7      -6.7062      1.00000
      8      -6.6372      1.00000
      9      -6.6057      1.00000
     10      -6.5905      1.00000
     11      -6.5523      1.00000
     12      -6.3664      1.00000
     13      -6.3294      1.00000
     14      -6.3124      1.00000
     15      -6.2767      1.00000
     16      -6.1491      1.00000
     17      -6.1243      1.00000
     18      -6.0910      1.00000
     19      -6.0575      1.00000
     20      -5.9712      1.00000
     21      -5.9433      1.00000
     22      -5.8325      1.00000
     23      -5.7935      1.00000
     24      -5.7326      1.00000
     25      -5.7034      1.00000
     26      -5.6801      1.00000
     27      -5.6579      1.00000
     28      -5.6270      1.00000
     29      -5.6116      1.00000
     30      -5.5507      1.00000
     31      -5.4873      1.00000
     32      -5.4420      1.00000
     33      -5.3938      1.00000
     34      -5.3544      1.00000
     35      -5.3338      1.00000
     36      -5.3062      1.00000
     37      -5.2609      1.00000
     38      -5.2515      1.00000
     39      -5.2218      1.00000
     40      -5.1471      1.00000
     41      -5.1123      1.00000
     42      -5.0047      1.00000
     43      -4.9293      1.00000
     44      -4.8723      1.00000
     45      -4.8206      1.00000
     46      -4.8007      1.00000
     47      -4.7673      1.00000
     48      -4.7365      1.00000
     49      -4.7137      1.00000
     50      -4.6483      1.00000
     51      -4.5893      1.00000
     52      -4.5445      1.00000
     53      -4.5044      1.00000
     54      -4.4993      1.00000
     55      -4.4495      1.00000
     56      -4.4252      1.00000
     57      -4.4155      1.00000
     58      -4.3249      1.00000
     59      -4.2983      1.00000
     60      -4.2860      1.00000
     61      -4.2673      1.00000
     62      -4.2315      1.00000
     63      -4.2120      1.00000
     64      -4.1555      1.00000
     65      -3.8498      1.00000
     66      -3.4716      1.00000
     67      -2.9636      0.99999
     68      -2.1562      0.00000
     69      -1.3340      0.00000
     70      -0.5858      0.00000
     71      -0.4006      0.00000
     72       0.5217      0.00000
     73       0.8324      0.00000
     74       1.6064      0.00000
     75       2.1542      0.00000
     76       2.3207      0.00000
     77       2.7931      0.00000
     78       3.5126      0.00000
     79       3.6188      0.00000
     80       3.9084      0.00000
     81       4.0096      0.00000
     82       4.0992      0.00000
     83       4.1991      0.00000
     84       4.3261      0.00000
     85       4.3392      0.00000
     86       4.7954      0.00000
     87       4.8139      0.00000
     88       4.8228      0.00000
     89       4.8708      0.00000
     90       4.8745      0.00000
     91       5.4508      0.00000
     92       5.5606      0.00000
     93       5.6516      0.00000
     94       5.6571      0.00000
     95       5.7342      0.00000
     96       5.8307      0.00000


--------------------------------------------------------------------------------------------------------


 soft charge-density along one line, spin component           1
         0         1         2         3         4         5         6         7         8         9
 total charge-density along one line
 
 soft charge-density along one line, spin component           2
         0         1         2         3         4         5         6         7         8         9
 total charge-density along one line
 
 pseudopotential strength for first ion, spin component:           1
-10.161  -0.003  -0.005  -0.005   0.000   0.764   0.002   0.003
 -0.003 -10.128  -0.002   0.005  -0.002   0.002   0.738   0.002
 -0.005  -0.002 -10.122  -0.004  -0.003   0.003   0.002   0.732
 -0.005   0.005  -0.004 -10.123  -0.003   0.004  -0.003   0.003
  0.000  -0.002  -0.003  -0.003 -10.161  -0.000   0.001   0.002
  0.764   0.002   0.003   0.004  -0.000   6.451  -0.002  -0.002
  0.002   0.738   0.002  -0.003   0.001  -0.002   6.470  -0.001
  0.003   0.002   0.732   0.003   0.002  -0.002  -0.001   6.474
  0.004  -0.003   0.003   0.734   0.002  -0.003   0.002  -0.002
 -0.000   0.001   0.002   0.002   0.765   0.000  -0.001  -0.001
 -0.001   0.001  -0.007   0.001  -0.000   0.000  -0.000   0.002
 -0.001   0.001  -0.014   0.002  -0.001   0.001  -0.000   0.004
  0.002  -0.008  -0.001   0.000  -0.001  -0.001   0.009   0.000
  0.000   0.001  -0.007   0.002   0.000  -0.000  -0.001   0.008
  0.001   0.000  -0.001  -0.008   0.002  -0.001  -0.000   0.001
  0.003  -0.009  -0.001   0.000  -0.001  -0.002   0.011   0.000
  0.000   0.002  -0.008   0.003   0.000  -0.000  -0.001   0.010
  0.002   0.000  -0.001  -0.009   0.003  -0.001  -0.000   0.001
 pseudopotential strength for first ion, spin component:           2
-10.161  -0.003  -0.005  -0.005   0.000   0.764   0.002   0.003
 -0.003 -10.128  -0.002   0.005  -0.002   0.002   0.738   0.002
 -0.005  -0.002 -10.122  -0.004  -0.003   0.003   0.002   0.732
 -0.005   0.005  -0.004 -10.123  -0.003   0.004  -0.003   0.003
  0.000  -0.002  -0.003  -0.003 -10.161  -0.000   0.001   0.002
  0.764   0.002   0.003   0.004  -0.000   6.451  -0.002  -0.002
  0.002   0.738   0.002  -0.003   0.001  -0.002   6.470  -0.001
  0.003   0.002   0.732   0.003   0.002  -0.002  -0.001   6.474
  0.004  -0.003   0.003   0.734   0.002  -0.003   0.002  -0.002
 -0.000   0.001   0.002   0.002   0.765   0.000  -0.001  -0.001
 -0.001   0.001  -0.007   0.001  -0.000   0.000  -0.000   0.002
 -0.001   0.001  -0.014   0.002  -0.001   0.001  -0.000   0.004
  0.002  -0.008  -0.001   0.000  -0.001  -0.001   0.009   0.000
  0.000   0.001  -0.007   0.002   0.000  -0.000  -0.001   0.008
  0.001   0.000  -0.001  -0.008   0.002  -0.001  -0.000   0.001
  0.003  -0.009  -0.001   0.000  -0.001  -0.002   0.011   0.000
  0.000   0.002  -0.008   0.003   0.000  -0.000  -0.001   0.010
  0.002   0.000  -0.001  -0.009   0.003  -0.001  -0.000   0.001
 total augmentation occupancy for first ion, spin component:           1
  1.908  -0.001  -0.000  -0.005   0.001  -0.016   0.000   0.000   0.004  -0.000  -0.004  -0.001  -0.001   0.002   0.005   0.001
 -0.001   1.923  -0.003   0.001  -0.003   0.000  -0.032   0.001  -0.000   0.004  -0.006  -0.000   0.006   0.002   0.002  -0.008
 -0.000  -0.003   1.924  -0.005  -0.000   0.000   0.001  -0.028   0.001   0.000   0.003   0.014  -0.001   0.052  -0.002  -0.000
 -0.005   0.001  -0.005   1.925  -0.001   0.004  -0.000   0.001  -0.033   0.000  -0.011  -0.000   0.002   0.003   0.008   0.000
  0.001  -0.003  -0.000  -0.001   1.907  -0.000   0.004   0.000   0.000  -0.016  -0.002  -0.001   0.006   0.001  -0.001  -0.001
 -0.016   0.000   0.000   0.004  -0.000   0.014  -0.000   0.000   0.000   0.000   0.000   0.000   0.000  -0.000   0.003  -0.000
  0.000  -0.032   0.001  -0.000   0.004  -0.000   0.010  -0.000   0.000   0.000   0.001   0.000   0.017  -0.000  -0.001  -0.001
  0.000   0.001  -0.028   0.001   0.000   0.000  -0.000   0.013  -0.000   0.000  -0.044   0.002   0.000   0.022   0.001   0.000
  0.004  -0.000   0.001  -0.033   0.000   0.000   0.000  -0.000   0.010  -0.000   0.003   0.000  -0.001  -0.001   0.017   0.000
 -0.000   0.004   0.000   0.000  -0.016   0.000   0.000   0.000  -0.000   0.014   0.000   0.000   0.003  -0.000   0.000  -0.000
 -0.004  -0.006   0.003  -0.011  -0.002   0.000   0.001  -0.044   0.003   0.000   1.710  -0.134  -0.002   0.127  -0.004   0.000
 -0.001  -0.000   0.014  -0.000  -0.001   0.000   0.000   0.002   0.000   0.000  -0.134   0.017  -0.000  -0.023  -0.001  -0.000
 -0.001   0.006  -0.001   0.002   0.006   0.000   0.017   0.000  -0.001   0.003  -0.002  -0.000   0.208   0.002   0.003  -0.013
  0.002   0.002   0.052   0.003   0.001  -0.000  -0.000   0.022  -0.001  -0.000   0.127  -0.023   0.002   0.125   0.004  -0.000
  0.005   0.002  -0.002   0.008  -0.001   0.003  -0.001   0.001   0.017   0.000  -0.004  -0.001   0.003   0.004   0.212  -0.000
  0.001  -0.008  -0.000   0.000  -0.001  -0.000  -0.001   0.000   0.000  -0.000   0.000  -0.000  -0.013  -0.000  -0.000   0.001
  0.000   0.001  -0.013   0.001   0.000   0.000  -0.000  -0.001  -0.000   0.000  -0.018   0.002  -0.000  -0.008  -0.000  -0.000
  0.000   0.000  -0.001  -0.008   0.001  -0.000   0.000   0.000  -0.001  -0.000   0.000  -0.000  -0.000  -0.000  -0.013  -0.000
 total augmentation occupancy for first ion, spin component:           2
 -0.000  -0.000   0.000   0.000   0.000   0.000   0.000   0.000  -0.000  -0.000  -0.000  -0.000   0.000  -0.000   0.000   0.000
 -0.000   0.000  -0.000   0.000   0.000   0.000  -0.000  -0.000   0.000  -0.000   0.000  -0.000   0.000  -0.000  -0.000  -0.000
  0.000  -0.000  -0.000  -0.000   0.000  -0.000   0.000  -0.000   0.000  -0.000  -0.000   0.000   0.000   0.000   0.000  -0.000
  0.000   0.000  -0.000   0.000  -0.000  -0.000   0.000  -0.000  -0.000   0.000   0.000  -0.000  -0.000  -0.000   0.000  -0.000
  0.000   0.000   0.000  -0.000  -0.000  -0.000  -0.000   0.000   0.000   0.000  -0.000  -0.000  -0.000  -0.000   0.000  -0.000
  0.000   0.000  -0.000  -0.000  -0.000  -0.000  -0.000  -0.000   0.000   0.000   0.000   0.000  -0.000  -0.000   0.000  -0.000
  0.000  -0.000   0.000   0.000  -0.000  -0.000  -0.000  -0.000  -0.000   0.000  -0.000   0.000  -0.000   0.000  -0.000   0.000
  0.000  -0.000  -0.000  -0.000   0.000  -0.000  -0.000  -0.000  -0.000  -0.000  -0.000  -0.000   0.000  -0.000   0.000  -0.000
 -0.000   0.000   0.000  -0.000   0.000   0.000  -0.000  -0.000  -0.000  -0.000  -0.000   0.000  -0.000   0.000  -0.000  -0.000
 -0.000  -0.000  -0.000   0.000   0.000   0.000   0.000  -0.000  -0.000  -0.000   0.000   0.000   0.000  -0.000  -0.000   0.000
 -0.000   0.000  -0.000   0.000  -0.000   0.000  -0.000  -0.000  -0.000   0.000  -0.000   0.000  -0.000   0.000  -0.000   0.000
 -0.000  -0.000   0.000  -0.000  -0.000   0.000   0.000  -0.000   0.000   0.000   0.000  -0.000   0.000  -0.000   0.000   0.000
  0.000   0.000   0.000  -0.000  -0.000  -0.000  -0.000   0.000  -0.000   0.000  -0.000   0.000  -0.000   0.000   0.000   0.000
 -0.000  -0.000   0.000  -0.000  -0.000  -0.000   0.000  -0.000   0.000  -0.000   0.000  -0.000   0.000  -0.000   0.000  -0.000
  0.000  -0.000   0.000   0.000   0.000   0.000  -0.000   0.000  -0.000  -0.000  -0.000   0.000   0.000   0.000  -0.000  -0.000
  0.000  -0.000  -0.000  -0.000  -0.000  -0.000   0.000  -0.000  -0.000   0.000   0.000   0.000   0.000  -0.000  -0.000  -0.000
  0.000   0.000  -0.000   0.000   0.000  -0.000  -0.000   0.000  -0.000  -0.000  -0.000  -0.000   0.000   0.000   0.000   0.000
 -0.000  -0.000  -0.000  -0.000   0.000  -0.000  -0.000  -0.000   0.000  -0.000   0.000   0.000  -0.000  -0.000   0.000   0.000


------------------------ aborting loop because EDIFF is reached ----------------------------------------


    CHARGE:  cpu time      0.1189: real time      0.1197
    FORLOC:  cpu time      0.0019: real time      0.0019
    FORNL :  cpu time      0.2527: real time      0.2548
    STRESS:  cpu time      1.5841: real time      1.5979
    FORCOR:  cpu time      0.0385: real time      0.0390
    FORHAR:  cpu time      0.0045: real time      0.0045
    MIXING:  cpu time      0.0018: real time      0.0018
    OFIELD:  cpu time      0.0000: real time      0.0000

 ---------------------------------------------------------------------------------------------

         DFTD3 V3.0 Rev 1        
 Edisp (eV)   -4.65860

 E6    (eV) :    -2.5735
 E8    (eV) :    -2.0851
 % E8        : 44.76
    FORVDW:  cpu time      0.0105: real time      0.0105

  FORCE on cell =-STRESS in cart. coord.  units (eV):
  Direction    XX          YY          ZZ          XY          YZ          ZX
  --------------------------------------------------------------------------------------
  Alpha Z   137.59429   137.59429   137.59429
  Ewald  132459.28715132459.28715************    -0.00000    -0.00000    -0.00000
  Hartree136346.50829136346.50829************     0.00000    -0.00000    -0.00000
  E(xc)    -772.61238  -772.61225  -774.40990    -0.00011     0.00000     0.00000
  Local  ************************273468.14757     0.00203    -0.00000    -0.00000
  n-local  -254.81561  -268.20148  -266.73786    -7.94018    -0.06369     0.00785
  augment  1134.18143  1134.18356  1139.81741    -0.00185    -0.00002    -0.00003
  Kinetic  1079.20523  1079.95488  1088.52661     0.48690    -0.86044     1.03219
  Fock        0.00000     0.00000     0.00000     0.00000     0.00000     0.00000
  vdW        -4.92384    -4.92384    -2.41954     0.00000    -0.00000    -0.00000
  -------------------------------------------------------------------------------------
  Total      -7.73665    -7.73665    -4.07930    -0.00000     0.00000    -0.00000
  in kB     -16.02461   -16.02461    -8.44928    -0.00000     0.00000    -0.00000
  external pressure =      -13.50 kB  Pullay stress =        0.00 kB


 VOLUME and BASIS-vectors are now :
 -----------------------------------------------------------------------------
  energy-cutoff  :      600.00
  volume of cell :      773.53
      direct lattice vectors                 reciprocal lattice vectors
     5.112382028  0.000000000  0.000000000     0.195603536 -0.112931754  0.000000000
     2.556191014  4.427452710  0.000000000     0.000000000  0.225863508  0.000000000
     0.000000000  0.000000000 34.174242446     0.000000000  0.000000000  0.029261804

  length of vectors
     5.112382028  5.112382028 34.174242446     0.225863508  0.225863508  0.029261804


 FORCES acting on ions
    electron-ion (+dipol)            ewald-force                    non-local-force                 convergence-correction
 -----------------------------------------------------------------------------------------------
   -.371E+00 -.214E+00 0.318E+04   0.358E-01 0.207E-01 -.317E+04   0.272E+00 0.157E+00 -.168E+01   0.948E-02 0.547E-02 -.238E-01
   0.371E+00 -.214E+00 0.318E+04   -.358E-01 0.207E-01 -.317E+04   -.272E+00 0.157E+00 -.168E+01   -.948E-02 0.547E-02 -.238E-01
   0.274E-05 0.428E+00 0.318E+04   -.417E-08 -.414E-01 -.317E+04   -.359E-17 -.314E+00 -.168E+01   -.181E-07 -.109E-01 -.238E-01
   0.255E-05 0.147E-05 0.318E+04   0.502E-08 0.461E-08 -.317E+04   0.487E-17 0.780E-18 -.342E+01   -.818E-09 -.472E-09 -.221E-01
   -.255E-05 -.165E+01 0.354E+02   -.579E-08 0.800E+00 -.347E+02   -.178E-16 0.822E+00 -.713E+00   0.290E-07 0.686E-02 -.278E-01
   -.229E-05 -.132E-05 0.340E+02   0.456E-08 -.819E-08 -.338E+02   0.284E-17 0.306E-17 -.526E-01   -.217E-09 -.125E-09 -.448E-01
   0.143E+01 0.824E+00 0.354E+02   -.693E+00 -.400E+00 -.347E+02   -.712E+00 -.411E+00 -.713E+00   -.594E-02 -.343E-02 -.278E-01
   -.143E+01 0.824E+00 0.354E+02   0.693E+00 -.400E+00 -.347E+02   0.712E+00 -.411E+00 -.713E+00   0.594E-02 -.343E-02 -.278E-01
   -.706E-06 -.408E-06 -.306E+04   -.618E-08 -.249E-08 0.307E+04   -.388E-17 0.102E-17 -.532E+01   -.113E-08 -.654E-09 -.253E-01
   -.400E-06 -.250E-01 -.312E+04   0.515E-08 -.823E-08 0.311E+04   -.648E-17 0.301E-01 0.363E+01   0.438E-08 0.991E-03 0.796E-01
   -.217E-01 0.125E-01 -.312E+04   -.492E-08 0.811E-08 0.311E+04   0.261E-01 -.151E-01 0.363E+01   0.858E-03 -.495E-03 0.796E-01
   0.217E-01 0.125E-01 -.312E+04   0.611E-08 0.221E-08 0.311E+04   -.261E-01 -.151E-01 0.363E+01   -.858E-03 -.495E-03 0.796E-01
   -.101E-06 -.581E-07 -.424E+03   -.176E-09 -.990E-10 0.425E+03   0.387E-18 0.379E-19 -.163E+01   0.160E-09 0.923E-10 0.326E-01
 -----------------------------------------------------------------------------------------------
   -.258E-06 -.145E-06 0.669E+01   0.994E-13 -.356E-13 0.171E-12   -.551E-16 0.278E-16 -.671E+01   -.224E-08 -.130E-08 0.243E-01
 
 
 POSITION                                       TOTAL-FORCE (eV/Angst)
 -----------------------------------------------------------------------------------
      1.27810      0.73791     15.00000        -0.053882     -0.031109      0.149907
      3.83429      0.73791     15.00000         0.053882     -0.031109      0.149907
      2.55619      2.95164     15.00000        -0.000000      0.062217      0.149907
      5.11238      2.95164     15.00000         0.000000     -0.000000      0.166307
      5.11238      1.47582     17.08712         0.000000     -0.020294      0.003097
      2.55619      1.47582     17.08712         0.000000     -0.000000      0.077476
      6.39048      3.68954     17.08712         0.017575      0.010147      0.003097
      3.83429      3.68954     17.08712        -0.017575      0.010147      0.003097
      0.00000      0.00000     19.17424         0.000000     -0.000000      0.602492
      2.55619      0.00000     19.17424         0.000000      0.006091     -0.130665
      1.27810      2.21373     19.17424         0.005275     -0.003046     -0.130665
      3.83429      2.21373     19.17424        -0.005275     -0.003046     -0.130665
      0.00000      0.00000     20.78593         0.000000     -0.000000     -0.913292
 -----------------------------------------------------------------------------------
    total drift:                               -0.000000     -0.000000     -0.003574


--------------------------------------------------------------------------------------------------------



  FREE ENERGIE OF THE ION-ELECTRON SYSTEM (eV)
  ---------------------------------------------------
  free  energy   TOTEN  =       -48.53008932 eV

  energy  without entropy=      -48.49091297  energy(sigma->0) =      -48.51050114
 
 d Force = 0.8962784E+00[ 0.597E+00, 0.120E+01]  d Energy = 0.1105149E+01-0.209E+00
 d Force =-0.2678304E+03[-0.278E+03,-0.258E+03]  d Ewald  =-0.2668776E+03-0.953E+00


--------------------------------------------------------------------------------------------------------


    POTLOK:  cpu time      0.0535: real time      0.0560


--------------------------------------------------------------------------------------------------------




--------------------------------------------------------------------------------------------------------


    WAVPRE:  cpu time      0.0046: real time      0.0220
    FEWALD:  cpu time      0.0003: real time      0.0003
    ORTHCH:  cpu time      0.2008: real time      0.2031
     LOOP+:  cpu time     33.1668: real time     33.5274


--------------------------------------- Iteration      6(   1)  ---------------------------------------


    POTLOK:  cpu time      0.0456: real time      0.0461
    SETDIJ:  cpu time      0.0049: real time      0.0049
     EDDAV:  cpu time      2.2050: real time      2.2266
       DOS:  cpu time      0.0003: real time      0.0003
    CHARGE:  cpu time      0.1165: real time      0.1174
    MIXING:  cpu time      0.0007: real time      0.0007
    --------------------------------------------
      LOOP:  cpu time      2.3730: real time      2.3960

 eigenvalue-minimisations  :  1920
 total energy-change (2. order) : 0.3723926E+00  (-0.3078100E+01)
 number of electron     133.0000043 magnetization      -0.0001008
 augmentation part       84.2440543 magnetization      -0.0000242

 Broyden mixing:
  rms(total) = 0.16892E+00    rms(broyden)= 0.16889E+00
  rms(prec ) = 0.17218E+00
  weight for this iteration     100.00

 Free energy of the ion-electron system (eV)
  ---------------------------------------------------
  alpha Z        PSCENC =       137.59429322
  Ewald energy   TEWEN  =    123845.93867243
  -Hartree energ DENC   =   -139243.95660580
  -exchange      EXHF   =         0.00000000
  -V(xc)+E(xc)   XCENC  =       536.55568403
  PAW double counting   =     15626.59412566   -16918.25843394
  entropy T*S    EENTRO =        -0.03453588
  eigenvalues    EBANDS =      -732.14986774
  atomic energy  EATOM  =     16704.21750749
  Solvation  Ecorr_sol  =         0.00000000
  ---------------------------------------------------
  free energy    TOTEN  =       -43.49916053 eV

  energy without entropy =      -43.46462465  energy(sigma->0) =      -43.48189259


--------------------------------------------------------------------------------------------------------




--------------------------------------- Iteration      6(   2)  ---------------------------------------


    POTLOK:  cpu time      0.0437: real time      0.0443
    SETDIJ:  cpu time      0.0031: real time      0.0031
     EDDAV:  cpu time      3.0184: real time      3.0477
       DOS:  cpu time      0.0003: real time      0.0003
    CHARGE:  cpu time      0.1227: real time      0.1232
    MIXING:  cpu time      0.0008: real time      0.0008
    --------------------------------------------
      LOOP:  cpu time      3.1890: real time      3.2194

 eigenvalue-minimisations  :  2752
 total energy-change (2. order) :-0.7294845E-03  (-0.3916616E-01)
 number of electron     133.0000043 magnetization      -0.0001012
 augmentation part       84.2524737 magnetization      -0.0000253

 Broyden mixing:
  rms(total) = 0.89747E-01    rms(broyden)= 0.89746E-01
  rms(prec ) = 0.92024E-01
  weight for this iteration     100.00

 eigenvalues of (default mixing * dielectric matrix)
  average eigenvalue GAMMA=   1.2768
  1.2768

 Free energy of the ion-electron system (eV)
  ---------------------------------------------------
  alpha Z        PSCENC =       137.59429322
  Ewald energy   TEWEN  =    123845.93867243
  -Hartree energ DENC   =   -139246.99541999
  -exchange      EXHF   =         0.00000000
  -V(xc)+E(xc)   XCENC  =       536.55515264
  PAW double counting   =     15659.41069155   -16951.57940516
  entropy T*S    EENTRO =        -0.03425242
  eigenvalues    EBANDS =      -728.60712977
  atomic energy  EATOM  =     16704.21750749
  Solvation  Ecorr_sol  =         0.00000000
  ---------------------------------------------------
  free energy    TOTEN  =       -43.49989001 eV

  energy without entropy =      -43.46563759  energy(sigma->0) =      -43.48276380


--------------------------------------------------------------------------------------------------------




--------------------------------------- Iteration      6(   3)  ---------------------------------------


    POTLOK:  cpu time      0.0461: real time      0.0465
    SETDIJ:  cpu time      0.0038: real time      0.0038
     EDDAV:  cpu time      2.8968: real time      2.9250
       DOS:  cpu time      0.0012: real time      0.0012
    CHARGE:  cpu time      0.1082: real time      0.1090
    MIXING:  cpu time      0.0008: real time      0.0008
    --------------------------------------------
      LOOP:  cpu time      3.0569: real time      3.0864

 eigenvalue-minimisations  :  2560
 total energy-change (2. order) :-0.3596740E-02  (-0.1245639E-01)
 number of electron     133.0000044 magnetization      -0.0001013
 augmentation part       84.2332578 magnetization      -0.0000251

 Broyden mixing:
  rms(total) = 0.10720E+00    rms(broyden)= 0.10720E+00
  rms(prec ) = 0.11100E+00
  weight for this iteration     100.00

 eigenvalues of (default mixing * dielectric matrix)
  average eigenvalue GAMMA=   1.2618
  2.1147  0.4089

 Free energy of the ion-electron system (eV)
  ---------------------------------------------------
  alpha Z        PSCENC =       137.59429322
  Ewald energy   TEWEN  =    123845.93867243
  -Hartree energ DENC   =   -139251.39707934
  -exchange      EXHF   =         0.00000000
  -V(xc)+E(xc)   XCENC  =       536.57377871
  PAW double counting   =     15681.62678616   -16974.34821104
  entropy T*S    EENTRO =        -0.03609367
  eigenvalues    EBANDS =      -723.67314070
  atomic energy  EATOM  =     16704.21750749
  Solvation  Ecorr_sol  =         0.00000000
  ---------------------------------------------------
  free energy    TOTEN  =       -43.50348675 eV

  energy without entropy =      -43.46739308  energy(sigma->0) =      -43.48543991


--------------------------------------------------------------------------------------------------------




--------------------------------------- Iteration      6(   4)  ---------------------------------------


    POTLOK:  cpu time      0.0439: real time      0.0444
    SETDIJ:  cpu time      0.0032: real time      0.0032
     EDDAV:  cpu time      2.7843: real time      2.8124
       DOS:  cpu time      0.0013: real time      0.0013
    CHARGE:  cpu time      0.1084: real time      0.1089
    MIXING:  cpu time      0.0010: real time      0.0010
    --------------------------------------------
      LOOP:  cpu time      2.9420: real time      2.9713

 eigenvalue-minimisations  :  2496
 total energy-change (2. order) : 0.1487961E-01  (-0.6718268E-02)
 number of electron     133.0000043 magnetization      -0.0001008
 augmentation part       84.2398020 magnetization      -0.0000295

 Broyden mixing:
  rms(total) = 0.18875E-01    rms(broyden)= 0.18864E-01
  rms(prec ) = 0.21868E-01
  weight for this iteration     100.00

 eigenvalues of (default mixing * dielectric matrix)
  average eigenvalue GAMMA=   1.1296
  2.1941  0.7935  0.4011

 Free energy of the ion-electron system (eV)
  ---------------------------------------------------
  alpha Z        PSCENC =       137.59429322
  Ewald energy   TEWEN  =    123845.93867243
  -Hartree energ DENC   =   -139255.28520063
  -exchange      EXHF   =         0.00000000
  -V(xc)+E(xc)   XCENC  =       536.56367660
  PAW double counting   =     15696.67705712   -16989.58460769
  entropy T*S    EENTRO =        -0.03384927
  eigenvalues    EBANDS =      -719.57615642
  atomic energy  EATOM  =     16704.21750749
  Solvation  Ecorr_sol  =         0.00000000
  ---------------------------------------------------
  free energy    TOTEN  =       -43.48860714 eV

  energy without entropy =      -43.45475787  energy(sigma->0) =      -43.47168251


--------------------------------------------------------------------------------------------------------




--------------------------------------- Iteration      6(   5)  ---------------------------------------


    POTLOK:  cpu time      0.0438: real time      0.0444
    SETDIJ:  cpu time      0.0032: real time      0.0036
     EDDAV:  cpu time      3.2077: real time      3.2386
       DOS:  cpu time      0.0003: real time      0.0003
    CHARGE:  cpu time      0.1086: real time      0.1095
    MIXING:  cpu time      0.0012: real time      0.0012
    --------------------------------------------
      LOOP:  cpu time      3.3649: real time      3.3975

 eigenvalue-minimisations  :  3008
 total energy-change (2. order) :-0.5599585E-03  (-0.2318549E-02)
 number of electron     133.0000044 magnetization      -0.0001005
 augmentation part       84.2410877 magnetization      -0.0000253

 Broyden mixing:
  rms(total) = 0.23755E-01    rms(broyden)= 0.23754E-01
  rms(prec ) = 0.26330E-01
  weight for this iteration     100.00

 eigenvalues of (default mixing * dielectric matrix)
  average eigenvalue GAMMA=   0.9974
  2.2540  1.0295  0.4134  0.2926

 Free energy of the ion-electron system (eV)
  ---------------------------------------------------
  alpha Z        PSCENC =       137.59429322
  Ewald energy   TEWEN  =    123845.93867243
  -Hartree energ DENC   =   -139256.74218967
  -exchange      EXHF   =         0.00000000
  -V(xc)+E(xc)   XCENC  =       536.55243729
  PAW double counting   =     15698.52877290   -16991.40513069
  entropy T*S    EENTRO =        -0.03560761
  eigenvalues    EBANDS =      -718.13792247
  atomic energy  EATOM  =     16704.21750749
  Solvation  Ecorr_sol  =         0.00000000
  ---------------------------------------------------
  free energy    TOTEN  =       -43.48916710 eV

  energy without entropy =      -43.45355949  energy(sigma->0) =      -43.47136330


--------------------------------------------------------------------------------------------------------




--------------------------------------- Iteration      6(   6)  ---------------------------------------


    POTLOK:  cpu time      0.0437: real time      0.0442
    SETDIJ:  cpu time      0.0031: real time      0.0031
     EDDAV:  cpu time      3.3308: real time      3.3624
       DOS:  cpu time      0.0003: real time      0.0003
    CHARGE:  cpu time      0.1067: real time      0.1076
    MIXING:  cpu time      0.0011: real time      0.0011
    --------------------------------------------
      LOOP:  cpu time      3.4857: real time      3.5187

 eigenvalue-minimisations  :  3072
 total energy-change (2. order) : 0.1144009E-02  (-0.4663183E-03)
 number of electron     133.0000044 magnetization      -0.0000998
 augmentation part       84.2438016 magnetization      -0.0000315

 Broyden mixing:
  rms(total) = 0.64082E-02    rms(broyden)= 0.64076E-02
  rms(prec ) = 0.70000E-02
  weight for this iteration     100.00

 eigenvalues of (default mixing * dielectric matrix)
  average eigenvalue GAMMA=   1.0069
  2.3054  1.2964  0.6496  0.4369  0.3461

 Free energy of the ion-electron system (eV)
  ---------------------------------------------------
  alpha Z        PSCENC =       137.59429322
  Ewald energy   TEWEN  =    123845.93867243
  -Hartree energ DENC   =   -139257.66689998
  -exchange      EXHF   =         0.00000000
  -V(xc)+E(xc)   XCENC  =       536.54638677
  PAW double counting   =     15699.08253822   -16991.92809853
  entropy T*S    EENTRO =        -0.03500963
  eigenvalues    EBANDS =      -717.23741308
  atomic energy  EATOM  =     16704.21750749
  Solvation  Ecorr_sol  =         0.00000000
  ---------------------------------------------------
  free energy    TOTEN  =       -43.48802309 eV

  energy without entropy =      -43.45301346  energy(sigma->0) =      -43.47051828


--------------------------------------------------------------------------------------------------------




--------------------------------------- Iteration      6(   7)  ---------------------------------------


    POTLOK:  cpu time      0.0447: real time      0.0454
    SETDIJ:  cpu time      0.0032: real time      0.0032
     EDDAV:  cpu time      3.2820: real time      3.3124
       DOS:  cpu time      0.0003: real time      0.0003
    --------------------------------------------
      LOOP:  cpu time      3.3302: real time      3.3614

 eigenvalue-minimisations  :  3072
 total energy-change (2. order) : 0.5615943E-04  (-0.6686235E-04)
 number of electron     133.0000044 magnetization      -0.0000998
 augmentation part       84.2438016 magnetization      -0.0000315

 Free energy of the ion-electron system (eV)
  ---------------------------------------------------
  alpha Z        PSCENC =       137.59429322
  Ewald energy   TEWEN  =    123845.93867243
  -Hartree energ DENC   =   -139258.94772528
  -exchange      EXHF   =         0.00000000
  -V(xc)+E(xc)   XCENC  =       536.54605444
  PAW double counting   =     15698.89355829   -16991.73025339
  entropy T*S    EENTRO =        -0.03467311
  eigenvalues    EBANDS =      -715.96540101
  atomic energy  EATOM  =     16704.21750749
  Solvation  Ecorr_sol  =         0.00000000
  ---------------------------------------------------
  free energy    TOTEN  =       -43.48796693 eV

  energy without entropy =      -43.45329382  energy(sigma->0) =      -43.47063038


--------------------------------------------------------------------------------------------------------




 average (electrostatic) potential at core
  the test charge radii are     0.9430  0.5201
  (the norm of the test charge is              1.0000)
       1 -73.5367       2 -73.5368       3 -73.5368       4 -73.5719       5 -73.7884
       6 -73.7682       7 -73.7884       8 -73.7884       9 -74.3653      10 -73.4777
      11 -73.4777      12 -73.4777      13 -39.9679
 
 
 
 E-fermi :  -2.5303     XC(G=0):  -3.0257     alpha+bet : -2.4952

 Fermi energy:        -2.5302807695

 spin component 1

 k-point     1 :       0.0000    0.0000    0.0000
  band No.  band energies     occupation 
      1     -11.1565      1.00000
      2      -9.3487      1.00000
      3      -8.0484      1.00000
      4      -7.7016      1.00000
      5      -7.2440      1.00000
      6      -7.2440      1.00000
      7      -7.1443      1.00000
      8      -7.0552      1.00000
      9      -7.0552      1.00000
     10      -6.9337      1.00000
     11      -6.7050      1.00000
     12      -6.7050      1.00000
     13      -6.6322      1.00000
     14      -6.6321      1.00000
     15      -6.6159      1.00000
     16      -6.5468      1.00000
     17      -6.1511      1.00000
     18      -6.1511      1.00000
     19      -5.8829      1.00000
     20      -5.6305      1.00000
     21      -5.6305      1.00000
     22      -5.5571      1.00000
     23      -5.5055      1.00000
     24      -5.4565      1.00000
     25      -5.4565      1.00000
     26      -5.3418      1.00000
     27      -5.3418      1.00000
     28      -5.2871      1.00000
     29      -5.2803      1.00000
     30      -5.2803      1.00000
     31      -5.2270      1.00000
     32      -5.1773      1.00000
     33      -5.1773      1.00000
     34      -5.0207      1.00000
     35      -5.0207      1.00000
     36      -4.8559      1.00000
     37      -4.8559      1.00000
     38      -4.7963      1.00000
     39      -4.6197      1.00000
     40      -4.6197      1.00000
     41      -4.5834      1.00000
     42      -4.5834      1.00000
     43      -4.5771      1.00000
     44      -4.5333      1.00000
     45      -4.3579      1.00000
     46      -4.3579      1.00000
     47      -4.2238      1.00000
     48      -4.2238      1.00000
     49      -4.1710      1.00000
     50      -4.1625      1.00000
     51      -4.1214      1.00000
     52      -4.1214      1.00000
     53      -4.1175      1.00000
     54      -4.1175      1.00000
     55      -4.0783      1.00000
     56      -4.0783      1.00000
     57      -4.0729      1.00000
     58      -3.9981      1.00000
     59      -3.9981      1.00000
     60      -3.8708      1.00000
     61      -3.8708      1.00000
     62      -3.8647      1.00000
     63      -3.8160      1.00000
     64      -3.1081      1.00000
     65      -2.4846      0.15571
     66      -2.4846      0.15568
     67      -2.4801      0.13476
     68      -1.3834      0.00000
     69      -1.3834      0.00000
     70      -1.3351      0.00000
     71      -0.9652      0.00000
     72      -0.9425      0.00000
     73      -0.9425      0.00000
     74      -0.3208      0.00000
     75       1.5965      0.00000
     76       1.9178      0.00000
     77       1.9733      0.00000
     78       1.9733      0.00000
     79       2.1557      0.00000
     80       2.1954      0.00000
     81       2.6810      0.00000
     82       2.7718      0.00000
     83       3.1430      0.00000
     84       3.1430      0.00000
     85       3.4753      0.00000
     86       3.5869      0.00000
     87       3.7071      0.00000
     88       3.9243      0.00000
     89       3.9243      0.00000
     90       4.7195      0.00000
     91       4.8650      0.00000
     92       5.9741      0.00000
     93       6.3014      0.00000
     94       6.3639      0.00000
     95       6.4056      0.00000
     96       6.4056      0.00000

 k-point     2 :       0.2000    0.0000    0.0000
  band No.  band energies     occupation 
      1     -10.8434      1.00000
      2      -9.0803      1.00000
      3      -8.0388      1.00000
      4      -7.4859      1.00000
      5      -7.4706      1.00000
      6      -7.1754      1.00000
      7      -7.0996      1.00000
      8      -7.0367      1.00000
      9      -6.9450      1.00000
     10      -6.8528      1.00000
     11      -6.6425      1.00000
     12      -6.6129      1.00000
     13      -6.5710      1.00000
     14      -6.4958      1.00000
     15      -6.4766      1.00000
     16      -6.4207      1.00000
     17      -6.1302      1.00000
     18      -6.1068      1.00000
     19      -5.8754      1.00000
     20      -5.6305      1.00000
     21      -5.5887      1.00000
     22      -5.5784      1.00000
     23      -5.5388      1.00000
     24      -5.5004      1.00000
     25      -5.4750      1.00000
     26      -5.4046      1.00000
     27      -5.3841      1.00000
     28      -5.3498      1.00000
     29      -5.2751      1.00000
     30      -5.2738      1.00000
     31      -5.2193      1.00000
     32      -5.2095      1.00000
     33      -5.1773      1.00000
     34      -5.1236      1.00000
     35      -5.0866      1.00000
     36      -5.0762      1.00000
     37      -4.9099      1.00000
     38      -4.8837      1.00000
     39      -4.7422      1.00000
     40      -4.7016      1.00000
     41      -4.6809      1.00000
     42      -4.6315      1.00000
     43      -4.6222      1.00000
     44      -4.5639      1.00000
     45      -4.5439      1.00000
     46      -4.4404      1.00000
     47      -4.4222      1.00000
     48      -4.3657      1.00000
     49      -4.3508      1.00000
     50      -4.2762      1.00000
     51      -4.2651      1.00000
     52      -4.2501      1.00000
     53      -4.2267      1.00000
     54      -4.2094      1.00000
     55      -4.1998      1.00000
     56      -4.1573      1.00000
     57      -4.1094      1.00000
     58      -4.0854      1.00000
     59      -4.0448      1.00000
     60      -4.0436      1.00000
     61      -3.9907      1.00000
     62      -3.9652      1.00000
     63      -3.9130      1.00000
     64      -3.7986      1.00000
     65      -2.9671      1.00000
     66      -2.5647      0.78186
     67      -2.5218      0.42178
     68      -2.4156      0.01408
     69      -1.5159      0.00000
     70      -1.4685      0.00000
     71      -0.6834      0.00000
     72      -0.0090      0.00000
     73       0.0575      0.00000
     74       0.7662      0.00000
     75       1.8851      0.00000
     76       2.2304      0.00000
     77       2.3311      0.00000
     78       2.4550      0.00000
     79       2.4753      0.00000
     80       2.7504      0.00000
     81       2.9887      0.00000
     82       3.0590      0.00000
     83       3.1710      0.00000
     84       3.3416      0.00000
     85       3.7847      0.00000
     86       3.9246      0.00000
     87       4.1012      0.00000
     88       4.4924      0.00000
     89       4.6505      0.00000
     90       5.0248      0.00000
     91       5.1638      0.00000
     92       6.0231      0.00000
     93       6.0792      0.00000
     94       6.2708      0.00000
     95       6.5325      0.00000
     96       6.6254      0.00000

 k-point     3 :       0.4000    0.0000    0.0000
  band No.  band energies     occupation 
      1      -9.9538      1.00000
      2      -8.7617      1.00000
      3      -8.3279      1.00000
      4      -7.7784      1.00000
      5      -7.2295      1.00000
      6      -7.0227      1.00000
      7      -6.9243      1.00000
      8      -6.8925      1.00000
      9      -6.7154      1.00000
     10      -6.6554      1.00000
     11      -6.5544      1.00000
     12      -6.3868      1.00000
     13      -6.3470      1.00000
     14      -6.2549      1.00000
     15      -6.2480      1.00000
     16      -6.1358      1.00000
     17      -6.0140      1.00000
     18      -5.9951      1.00000
     19      -5.8823      1.00000
     20      -5.8635      1.00000
     21      -5.7979      1.00000
     22      -5.7919      1.00000
     23      -5.7105      1.00000
     24      -5.6066      1.00000
     25      -5.5468      1.00000
     26      -5.5100      1.00000
     27      -5.5006      1.00000
     28      -5.4271      1.00000
     29      -5.3706      1.00000
     30      -5.3170      1.00000
     31      -5.2728      1.00000
     32      -5.2297      1.00000
     33      -5.1879      1.00000
     34      -5.1735      1.00000
     35      -5.1303      1.00000
     36      -5.1061      1.00000
     37      -5.0989      1.00000
     38      -5.0446      1.00000
     39      -5.0294      1.00000
     40      -5.0136      1.00000
     41      -5.0034      1.00000
     42      -4.9499      1.00000
     43      -4.7978      1.00000
     44      -4.7733      1.00000
     45      -4.7475      1.00000
     46      -4.7204      1.00000
     47      -4.6785      1.00000
     48      -4.6379      1.00000
     49      -4.5618      1.00000
     50      -4.5315      1.00000
     51      -4.5103      1.00000
     52      -4.5057      1.00000
     53      -4.3946      1.00000
     54      -4.3609      1.00000
     55      -4.3557      1.00000
     56      -4.3419      1.00000
     57      -4.3089      1.00000
     58      -4.2424      1.00000
     59      -4.1529      1.00000
     60      -4.1020      1.00000
     61      -4.0891      1.00000
     62      -4.0758      1.00000
     63      -4.0201      1.00000
     64      -4.0046      1.00000
     65      -3.2464      1.00000
     66      -2.5633      0.77248
     67      -2.5138      0.35204
     68      -2.1452      0.00000
     69      -1.4767      0.00000
     70      -1.3948      0.00000
     71      -0.9122      0.00000
     72       0.3250      0.00000
     73       0.9732      0.00000
     74       1.1711      0.00000
     75       2.4995      0.00000
     76       2.8867      0.00000
     77       3.1639      0.00000
     78       3.3570      0.00000
     79       3.3832      0.00000
     80       3.5084      0.00000
     81       3.9095      0.00000
     82       3.9546      0.00000
     83       4.0859      0.00000
     84       4.3268      0.00000
     85       4.6807      0.00000
     86       4.7264      0.00000
     87       4.8187      0.00000
     88       4.9106      0.00000
     89       5.0161      0.00000
     90       5.2402      0.00000
     91       5.3566      0.00000
     92       5.4491      0.00000
     93       5.8931      0.00000
     94       5.9368      0.00000
     95       6.0377      0.00000
     96       6.0393      0.00000

 k-point     4 :       0.4000    0.2000    0.0000
  band No.  band energies     occupation 
      1     -10.2393      1.00000
      2      -8.6621      1.00000
      3      -8.0363      1.00000
      4      -7.7958      1.00000
      5      -7.5738      1.00000
      6      -7.0671      1.00000
      7      -6.9936      1.00000
      8      -6.9126      1.00000
      9      -6.7822      1.00000
     10      -6.6240      1.00000
     11      -6.4937      1.00000
     12      -6.4781      1.00000
     13      -6.4173      1.00000
     14      -6.3131      1.00000
     15      -6.2851      1.00000
     16      -6.2285      1.00000
     17      -6.0516      1.00000
     18      -6.0437      1.00000
     19      -5.8878      1.00000
     20      -5.7854      1.00000
     21      -5.7421      1.00000
     22      -5.6662      1.00000
     23      -5.6418      1.00000
     24      -5.6299      1.00000
     25      -5.5481      1.00000
     26      -5.4817      1.00000
     27      -5.4621      1.00000
     28      -5.4100      1.00000
     29      -5.3429      1.00000
     30      -5.3198      1.00000
     31      -5.2908      1.00000
     32      -5.2862      1.00000
     33      -5.2265      1.00000
     34      -5.1436      1.00000
     35      -5.1391      1.00000
     36      -5.0796      1.00000
     37      -5.0339      1.00000
     38      -4.9830      1.00000
     39      -4.9394      1.00000
     40      -4.9114      1.00000
     41      -4.8581      1.00000
     42      -4.8379      1.00000
     43      -4.8140      1.00000
     44      -4.7635      1.00000
     45      -4.7263      1.00000
     46      -4.7224      1.00000
     47      -4.6239      1.00000
     48      -4.5751      1.00000
     49      -4.5424      1.00000
     50      -4.5265      1.00000
     51      -4.4418      1.00000
     52      -4.4240      1.00000
     53      -4.3484      1.00000
     54      -4.3136      1.00000
     55      -4.2497      1.00000
     56      -4.2347      1.00000
     57      -4.1840      1.00000
     58      -4.1725      1.00000
     59      -4.1385      1.00000
     60      -4.1256      1.00000
     61      -4.1055      1.00000
     62      -4.0785      1.00000
     63      -3.8093      1.00000
     64      -3.7993      1.00000
     65      -3.6123      1.00000
     66      -3.1770      1.00000
     67      -3.0822      1.00000
     68      -1.8420      0.00000
     69      -0.8250      0.00000
     70      -0.7432      0.00000
     71      -0.6543      0.00000
     72      -0.1105      0.00000
     73       0.5813      0.00000
     74       1.1602      0.00000
     75       2.4221      0.00000
     76       2.4686      0.00000
     77       2.5656      0.00000
     78       2.8493      0.00000
     79       3.0765      0.00000
     80       3.3531      0.00000
     81       3.6034      0.00000
     82       3.6635      0.00000
     83       4.2223      0.00000
     84       4.4044      0.00000
     85       4.4580      0.00000
     86       4.5048      0.00000
     87       4.5597      0.00000
     88       5.1324      0.00000
     89       5.2970      0.00000
     90       5.6068      0.00000
     91       5.6495      0.00000
     92       5.7765      0.00000
     93       5.9109      0.00000
     94       5.9837      0.00000
     95       6.1075      0.00000
     96       6.1312      0.00000

 k-point     5 :      -0.4000    0.2000    0.0000
  band No.  band energies     occupation 
      1      -9.2498      1.00000
      2      -9.0502      1.00000
      3      -8.2710      1.00000
      4      -7.7940      1.00000
      5      -7.4417      1.00000
      6      -7.2996      1.00000
      7      -6.8567      1.00000
      8      -6.5389      1.00000
      9      -6.5303      1.00000
     10      -6.4894      1.00000
     11      -6.4758      1.00000
     12      -6.2608      1.00000
     13      -6.2286      1.00000
     14      -6.2077      1.00000
     15      -6.1900      1.00000
     16      -6.0816      1.00000
     17      -6.0053      1.00000
     18      -5.9897      1.00000
     19      -5.9647      1.00000
     20      -5.9320      1.00000
     21      -5.8943      1.00000
     22      -5.8461      1.00000
     23      -5.7671      1.00000
     24      -5.7133      1.00000
     25      -5.6341      1.00000
     26      -5.5863      1.00000
     27      -5.5675      1.00000
     28      -5.5334      1.00000
     29      -5.5057      1.00000
     30      -5.4556      1.00000
     31      -5.4090      1.00000
     32      -5.3550      1.00000
     33      -5.3069      1.00000
     34      -5.2605      1.00000
     35      -5.2198      1.00000
     36      -5.2018      1.00000
     37      -5.1349      1.00000
     38      -5.1263      1.00000
     39      -5.1010      1.00000
     40      -5.0304      1.00000
     41      -4.9877      1.00000
     42      -4.8845      1.00000
     43      -4.8030      1.00000
     44      -4.7684      1.00000
     45      -4.7203      1.00000
     46      -4.6699      1.00000
     47      -4.6444      1.00000
     48      -4.6207      1.00000
     49      -4.6127      1.00000
     50      -4.5389      1.00000
     51      -4.4660      1.00000
     52      -4.4596      1.00000
     53      -4.3906      1.00000
     54      -4.3781      1.00000
     55      -4.3242      1.00000
     56      -4.3041      1.00000
     57      -4.2955      1.00000
     58      -4.2127      1.00000
     59      -4.1727      1.00000
     60      -4.1688      1.00000
     61      -4.1428      1.00000
     62      -4.1024      1.00000
     63      -4.0850      1.00000
     64      -4.0376      1.00000
     65      -3.7360      1.00000
     66      -3.3383      1.00000
     67      -2.7802      0.99990
     68      -2.0599      0.00000
     69      -1.1500      0.00000
     70      -0.4688      0.00000
     71      -0.1187      0.00000
     72       0.6163      0.00000
     73       0.9216      0.00000
     74       1.8559      0.00000
     75       2.2648      0.00000
     76       2.4366      0.00000
     77       3.1646      0.00000
     78       3.5782      0.00000
     79       3.6239      0.00000
     80       3.9519      0.00000
     81       4.0800      0.00000
     82       4.1169      0.00000
     83       4.2823      0.00000
     84       4.3027      0.00000
     85       4.3531      0.00000
     86       4.7863      0.00000
     87       4.8224      0.00000
     88       4.8441      0.00000
     89       4.8508      0.00000
     90       4.9193      0.00000
     91       5.5274      0.00000
     92       5.5852      0.00000
     93       5.6542      0.00000
     94       5.6618      0.00000
     95       5.7307      0.00000
     96       5.8226      0.00000
 Fermi energy:        -2.5302807695

 spin component 2

 k-point     1 :       0.0000    0.0000    0.0000
  band No.  band energies     occupation 
      1     -11.1565      1.00000
      2      -9.3487      1.00000
      3      -8.0484      1.00000
      4      -7.7016      1.00000
      5      -7.2440      1.00000
      6      -7.2440      1.00000
      7      -7.1444      1.00000
      8      -7.0552      1.00000
      9      -7.0552      1.00000
     10      -6.9337      1.00000
     11      -6.7051      1.00000
     12      -6.7051      1.00000
     13      -6.6322      1.00000
     14      -6.6322      1.00000
     15      -6.6159      1.00000
     16      -6.5468      1.00000
     17      -6.1511      1.00000
     18      -6.1511      1.00000
     19      -5.8829      1.00000
     20      -5.6305      1.00000
     21      -5.6305      1.00000
     22      -5.5571      1.00000
     23      -5.5055      1.00000
     24      -5.4565      1.00000
     25      -5.4565      1.00000
     26      -5.3418      1.00000
     27      -5.3418      1.00000
     28      -5.2871      1.00000
     29      -5.2803      1.00000
     30      -5.2803      1.00000
     31      -5.2270      1.00000
     32      -5.1773      1.00000
     33      -5.1773      1.00000
     34      -5.0207      1.00000
     35      -5.0207      1.00000
     36      -4.8559      1.00000
     37      -4.8559      1.00000
     38      -4.7963      1.00000
     39      -4.6198      1.00000
     40      -4.6198      1.00000
     41      -4.5834      1.00000
     42      -4.5834      1.00000
     43      -4.5771      1.00000
     44      -4.5333      1.00000
     45      -4.3579      1.00000
     46      -4.3579      1.00000
     47      -4.2238      1.00000
     48      -4.2238      1.00000
     49      -4.1710      1.00000
     50      -4.1625      1.00000
     51      -4.1215      1.00000
     52      -4.1214      1.00000
     53      -4.1175      1.00000
     54      -4.1175      1.00000
     55      -4.0783      1.00000
     56      -4.0783      1.00000
     57      -4.0729      1.00000
     58      -3.9981      1.00000
     59      -3.9981      1.00000
     60      -3.8708      1.00000
     61      -3.8708      1.00000
     62      -3.8647      1.00000
     63      -3.8160      1.00000
     64      -3.1081      1.00000
     65      -2.4847      0.15578
     66      -2.4846      0.15575
     67      -2.4801      0.13482
     68      -1.3834      0.00000
     69      -1.3834      0.00000
     70      -1.3351      0.00000
     71      -0.9652      0.00000
     72      -0.9425      0.00000
     73      -0.9425      0.00000
     74      -0.3208      0.00000
     75       1.5964      0.00000
     76       1.9168      0.00000
     77       1.9733      0.00000
     78       1.9733      0.00000
     79       2.1595      0.00000
     80       2.1962      0.00000
     81       2.6836      0.00000
     82       2.7735      0.00000
     83       3.1430      0.00000
     84       3.1430      0.00000
     85       3.4779      0.00000
     86       3.5871      0.00000
     87       3.7071      0.00000
     88       3.9243      0.00000
     89       3.9243      0.00000
     90       4.7208      0.00000
     91       4.8668      0.00000
     92       5.9744      0.00000
     93       6.3018      0.00000
     94       6.3662      0.00000
     95       6.4056      0.00000
     96       6.4056      0.00000

 k-point     2 :       0.2000    0.0000    0.0000
  band No.  band energies     occupation 
      1     -10.8434      1.00000
      2      -9.0803      1.00000
      3      -8.0388      1.00000
      4      -7.4859      1.00000
      5      -7.4706      1.00000
      6      -7.1754      1.00000
      7      -7.0996      1.00000
      8      -7.0368      1.00000
      9      -6.9450      1.00000
     10      -6.8528      1.00000
     11      -6.6425      1.00000
     12      -6.6129      1.00000
     13      -6.5710      1.00000
     14      -6.4959      1.00000
     15      -6.4766      1.00000
     16      -6.4207      1.00000
     17      -6.1302      1.00000
     18      -6.1068      1.00000
     19      -5.8754      1.00000
     20      -5.6305      1.00000
     21      -5.5887      1.00000
     22      -5.5784      1.00000
     23      -5.5388      1.00000
     24      -5.5004      1.00000
     25      -5.4750      1.00000
     26      -5.4046      1.00000
     27      -5.3841      1.00000
     28      -5.3498      1.00000
     29      -5.2751      1.00000
     30      -5.2738      1.00000
     31      -5.2193      1.00000
     32      -5.2095      1.00000
     33      -5.1773      1.00000
     34      -5.1236      1.00000
     35      -5.0866      1.00000
     36      -5.0762      1.00000
     37      -4.9099      1.00000
     38      -4.8837      1.00000
     39      -4.7422      1.00000
     40      -4.7016      1.00000
     41      -4.6809      1.00000
     42      -4.6315      1.00000
     43      -4.6222      1.00000
     44      -4.5639      1.00000
     45      -4.5439      1.00000
     46      -4.4404      1.00000
     47      -4.4222      1.00000
     48      -4.3657      1.00000
     49      -4.3508      1.00000
     50      -4.2762      1.00000
     51      -4.2651      1.00000
     52      -4.2502      1.00000
     53      -4.2267      1.00000
     54      -4.2094      1.00000
     55      -4.1998      1.00000
     56      -4.1573      1.00000
     57      -4.1094      1.00000
     58      -4.0854      1.00000
     59      -4.0448      1.00000
     60      -4.0436      1.00000
     61      -3.9907      1.00000
     62      -3.9652      1.00000
     63      -3.9130      1.00000
     64      -3.7986      1.00000
     65      -2.9671      1.00000
     66      -2.5648      0.78193
     67      -2.5218      0.42187
     68      -2.4156      0.01408
     69      -1.5159      0.00000
     70      -1.4685      0.00000
     71      -0.6835      0.00000
     72      -0.0090      0.00000
     73       0.0575      0.00000
     74       0.7662      0.00000
     75       1.8850      0.00000
     76       2.2294      0.00000
     77       2.3311      0.00000
     78       2.4565      0.00000
     79       2.4785      0.00000
     80       2.7504      0.00000
     81       2.9913      0.00000
     82       3.0605      0.00000
     83       3.1710      0.00000
     84       3.3416      0.00000
     85       3.7874      0.00000
     86       3.9249      0.00000
     87       4.1012      0.00000
     88       4.4924      0.00000
     89       4.6505      0.00000
     90       5.0262      0.00000
     91       5.1656      0.00000
     92       6.0231      0.00000
     93       6.0792      0.00000
     94       6.2705      0.00000
     95       6.5333      0.00000
     96       6.6274      0.00000

 k-point     3 :       0.4000    0.0000    0.0000
  band No.  band energies     occupation 
      1      -9.9538      1.00000
      2      -8.7617      1.00000
      3      -8.3279      1.00000
      4      -7.7784      1.00000
      5      -7.2295      1.00000
      6      -7.0227      1.00000
      7      -6.9243      1.00000
      8      -6.8925      1.00000
      9      -6.7154      1.00000
     10      -6.6554      1.00000
     11      -6.5545      1.00000
     12      -6.3868      1.00000
     13      -6.3470      1.00000
     14      -6.2550      1.00000
     15      -6.2480      1.00000
     16      -6.1358      1.00000
     17      -6.0140      1.00000
     18      -5.9951      1.00000
     19      -5.8823      1.00000
     20      -5.8635      1.00000
     21      -5.7979      1.00000
     22      -5.7920      1.00000
     23      -5.7105      1.00000
     24      -5.6066      1.00000
     25      -5.5468      1.00000
     26      -5.5100      1.00000
     27      -5.5006      1.00000
     28      -5.4271      1.00000
     29      -5.3706      1.00000
     30      -5.3170      1.00000
     31      -5.2728      1.00000
     32      -5.2297      1.00000
     33      -5.1879      1.00000
     34      -5.1735      1.00000
     35      -5.1303      1.00000
     36      -5.1061      1.00000
     37      -5.0989      1.00000
     38      -5.0446      1.00000
     39      -5.0294      1.00000
     40      -5.0136      1.00000
     41      -5.0034      1.00000
     42      -4.9499      1.00000
     43      -4.7978      1.00000
     44      -4.7733      1.00000
     45      -4.7475      1.00000
     46      -4.7204      1.00000
     47      -4.6785      1.00000
     48      -4.6379      1.00000
     49      -4.5618      1.00000
     50      -4.5315      1.00000
     51      -4.5103      1.00000
     52      -4.5057      1.00000
     53      -4.3946      1.00000
     54      -4.3609      1.00000
     55      -4.3557      1.00000
     56      -4.3419      1.00000
     57      -4.3089      1.00000
     58      -4.2424      1.00000
     59      -4.1529      1.00000
     60      -4.1020      1.00000
     61      -4.0891      1.00000
     62      -4.0758      1.00000
     63      -4.0201      1.00000
     64      -4.0046      1.00000
     65      -3.2464      1.00000
     66      -2.5633      0.77253
     67      -2.5138      0.35212
     68      -2.1452      0.00000
     69      -1.4767      0.00000
     70      -1.3949      0.00000
     71      -0.9122      0.00000
     72       0.3250      0.00000
     73       0.9732      0.00000
     74       1.1711      0.00000
     75       2.4993      0.00000
     76       2.8869      0.00000
     77       3.1629      0.00000
     78       3.3570      0.00000
     79       3.3877      0.00000
     80       3.5085      0.00000
     81       3.9121      0.00000
     82       3.9559      0.00000
     83       4.0857      0.00000
     84       4.3268      0.00000
     85       4.6812      0.00000
     86       4.7281      0.00000
     87       4.8189      0.00000
     88       4.9149      0.00000
     89       5.0162      0.00000
     90       5.2402      0.00000
     91       5.3578      0.00000
     92       5.4514      0.00000
     93       5.8934      0.00000
     94       5.9382      0.00000
     95       6.0377      0.00000
     96       6.0405      0.00000

 k-point     4 :       0.4000    0.2000    0.0000
  band No.  band energies     occupation 
      1     -10.2393      1.00000
      2      -8.6621      1.00000
      3      -8.0363      1.00000
      4      -7.7959      1.00000
      5      -7.5738      1.00000
      6      -7.0671      1.00000
      7      -6.9936      1.00000
      8      -6.9126      1.00000
      9      -6.7822      1.00000
     10      -6.6240      1.00000
     11      -6.4937      1.00000
     12      -6.4782      1.00000
     13      -6.4173      1.00000
     14      -6.3131      1.00000
     15      -6.2851      1.00000
     16      -6.2285      1.00000
     17      -6.0516      1.00000
     18      -6.0437      1.00000
     19      -5.8878      1.00000
     20      -5.7854      1.00000
     21      -5.7421      1.00000
     22      -5.6662      1.00000
     23      -5.6418      1.00000
     24      -5.6299      1.00000
     25      -5.5481      1.00000
     26      -5.4817      1.00000
     27      -5.4621      1.00000
     28      -5.4100      1.00000
     29      -5.3429      1.00000
     30      -5.3199      1.00000
     31      -5.2908      1.00000
     32      -5.2862      1.00000
     33      -5.2265      1.00000
     34      -5.1436      1.00000
     35      -5.1391      1.00000
     36      -5.0796      1.00000
     37      -5.0340      1.00000
     38      -4.9831      1.00000
     39      -4.9394      1.00000
     40      -4.9114      1.00000
     41      -4.8582      1.00000
     42      -4.8379      1.00000
     43      -4.8140      1.00000
     44      -4.7635      1.00000
     45      -4.7263      1.00000
     46      -4.7224      1.00000
     47      -4.6239      1.00000
     48      -4.5751      1.00000
     49      -4.5424      1.00000
     50      -4.5265      1.00000
     51      -4.4418      1.00000
     52      -4.4240      1.00000
     53      -4.3484      1.00000
     54      -4.3136      1.00000
     55      -4.2497      1.00000
     56      -4.2347      1.00000
     57      -4.1840      1.00000
     58      -4.1725      1.00000
     59      -4.1385      1.00000
     60      -4.1257      1.00000
     61      -4.1055      1.00000
     62      -4.0785      1.00000
     63      -3.8093      1.00000
     64      -3.7993      1.00000
     65      -3.6124      1.00000
     66      -3.1770      1.00000
     67      -3.0822      1.00000
     68      -1.8420      0.00000
     69      -0.8250      0.00000
     70      -0.7432      0.00000
     71      -0.6543      0.00000
     72      -0.1105      0.00000
     73       0.5813      0.00000
     74       1.1602      0.00000
     75       2.4219      0.00000
     76       2.4686      0.00000
     77       2.5655      0.00000
     78       2.8486      0.00000
     79       3.0811      0.00000
     80       3.3531      0.00000
     81       3.6059      0.00000
     82       3.6649      0.00000
     83       4.2223      0.00000
     84       4.4070      0.00000
     85       4.4579      0.00000
     86       4.5048      0.00000
     87       4.5598      0.00000
     88       5.1323      0.00000
     89       5.2967      0.00000
     90       5.6080      0.00000
     91       5.6504      0.00000
     92       5.7775      0.00000
     93       5.9112      0.00000
     94       5.9836      0.00000
     95       6.1093      0.00000
     96       6.1353      0.00000

 k-point     5 :      -0.4000    0.2000    0.0000
  band No.  band energies     occupation 
      1      -9.2498      1.00000
      2      -9.0502      1.00000
      3      -8.2710      1.00000
      4      -7.7941      1.00000
      5      -7.4417      1.00000
      6      -7.2996      1.00000
      7      -6.8567      1.00000
      8      -6.5389      1.00000
      9      -6.5303      1.00000
     10      -6.4894      1.00000
     11      -6.4758      1.00000
     12      -6.2608      1.00000
     13      -6.2286      1.00000
     14      -6.2077      1.00000
     15      -6.1900      1.00000
     16      -6.0816      1.00000
     17      -6.0053      1.00000
     18      -5.9897      1.00000
     19      -5.9647      1.00000
     20      -5.9320      1.00000
     21      -5.8943      1.00000
     22      -5.8461      1.00000
     23      -5.7671      1.00000
     24      -5.7133      1.00000
     25      -5.6341      1.00000
     26      -5.5863      1.00000
     27      -5.5675      1.00000
     28      -5.5335      1.00000
     29      -5.5057      1.00000
     30      -5.4556      1.00000
     31      -5.4090      1.00000
     32      -5.3550      1.00000
     33      -5.3069      1.00000
     34      -5.2605      1.00000
     35      -5.2198      1.00000
     36      -5.2018      1.00000
     37      -5.1349      1.00000
     38      -5.1263      1.00000
     39      -5.1010      1.00000
     40      -5.0304      1.00000
     41      -4.9877      1.00000
     42      -4.8845      1.00000
     43      -4.8030      1.00000
     44      -4.7684      1.00000
     45      -4.7203      1.00000
     46      -4.6699      1.00000
     47      -4.6444      1.00000
     48      -4.6207      1.00000
     49      -4.6127      1.00000
     50      -4.5389      1.00000
     51      -4.4660      1.00000
     52      -4.4596      1.00000
     53      -4.3906      1.00000
     54      -4.3781      1.00000
     55      -4.3242      1.00000
     56      -4.3041      1.00000
     57      -4.2955      1.00000
     58      -4.2127      1.00000
     59      -4.1727      1.00000
     60      -4.1688      1.00000
     61      -4.1428      1.00000
     62      -4.1024      1.00000
     63      -4.0850      1.00000
     64      -4.0376      1.00000
     65      -3.7360      1.00000
     66      -3.3383      1.00000
     67      -2.7802      0.99990
     68      -2.0600      0.00000
     69      -1.1500      0.00000
     70      -0.4688      0.00000
     71      -0.1187      0.00000
     72       0.6162      0.00000
     73       0.9216      0.00000
     74       1.8559      0.00000
     75       2.2648      0.00000
     76       2.4366      0.00000
     77       3.1644      0.00000
     78       3.5778      0.00000
     79       3.6240      0.00000
     80       3.9522      0.00000
     81       4.0788      0.00000
     82       4.1167      0.00000
     83       4.2849      0.00000
     84       4.3072      0.00000
     85       4.3547      0.00000
     86       4.7886      0.00000
     87       4.8235      0.00000
     88       4.8455      0.00000
     89       4.8532      0.00000
     90       4.9193      0.00000
     91       5.5281      0.00000
     92       5.5864      0.00000
     93       5.6568      0.00000
     94       5.6627      0.00000
     95       5.7311      0.00000
     96       5.8256      0.00000


--------------------------------------------------------------------------------------------------------


 soft charge-density along one line, spin component           1
         0         1         2         3         4         5         6         7         8         9
 total charge-density along one line
 
 soft charge-density along one line, spin component           2
         0         1         2         3         4         5         6         7         8         9
 total charge-density along one line
 
 pseudopotential strength for first ion, spin component:           1
-10.067  -0.003  -0.004  -0.006   0.001   0.693   0.002   0.003
 -0.003 -10.035  -0.002   0.005  -0.002   0.002   0.667   0.002
 -0.004  -0.002 -10.028  -0.004  -0.002   0.003   0.002   0.661
 -0.006   0.005  -0.004 -10.030  -0.003   0.004  -0.003   0.003
  0.001  -0.002  -0.002  -0.003 -10.067  -0.000   0.001   0.002
  0.693   0.002   0.003   0.004  -0.000   6.501  -0.002  -0.002
  0.002   0.667   0.002  -0.003   0.001  -0.002   6.520  -0.001
  0.003   0.002   0.661   0.003   0.002  -0.002  -0.001   6.525
  0.004  -0.003   0.003   0.663   0.002  -0.003   0.002  -0.002
 -0.000   0.001   0.002   0.002   0.694   0.000  -0.001  -0.001
 -0.001   0.001  -0.007   0.001  -0.000   0.000  -0.000   0.002
 -0.001   0.001  -0.014   0.002  -0.001   0.001  -0.000   0.004
  0.003  -0.009  -0.001   0.000  -0.001  -0.002   0.009   0.001
  0.000   0.002  -0.008   0.003   0.000  -0.000  -0.001   0.009
  0.002   0.000  -0.001  -0.008   0.003  -0.001  -0.000   0.001
  0.003  -0.010  -0.001   0.000  -0.002  -0.002   0.012   0.001
  0.000   0.002  -0.009   0.003   0.000  -0.000  -0.001   0.010
  0.002   0.000  -0.002  -0.010   0.003  -0.001  -0.000   0.001
 pseudopotential strength for first ion, spin component:           2
-10.067  -0.003  -0.004  -0.006   0.001   0.693   0.002   0.003
 -0.003 -10.035  -0.002   0.005  -0.002   0.002   0.667   0.002
 -0.004  -0.002 -10.028  -0.004  -0.002   0.003   0.002   0.661
 -0.006   0.005  -0.004 -10.030  -0.003   0.004  -0.003   0.003
  0.001  -0.002  -0.002  -0.003 -10.067  -0.000   0.001   0.002
  0.693   0.002   0.003   0.004  -0.000   6.501  -0.002  -0.002
  0.002   0.667   0.002  -0.003   0.001  -0.002   6.520  -0.001
  0.003   0.002   0.661   0.003   0.002  -0.002  -0.001   6.525
  0.004  -0.003   0.003   0.663   0.002  -0.003   0.002  -0.002
 -0.000   0.001   0.002   0.002   0.694   0.000  -0.001  -0.001
 -0.001   0.001  -0.007   0.001  -0.000   0.000  -0.000   0.002
 -0.001   0.001  -0.014   0.002  -0.001   0.001  -0.000   0.004
  0.003  -0.009  -0.001   0.000  -0.001  -0.002   0.009   0.001
  0.000   0.002  -0.008   0.003   0.000  -0.000  -0.001   0.009
  0.002   0.000  -0.001  -0.008   0.003  -0.001  -0.000   0.001
  0.003  -0.010  -0.001   0.000  -0.002  -0.002   0.012   0.001
  0.000   0.002  -0.009   0.003   0.000  -0.000  -0.001   0.010
  0.002   0.000  -0.002  -0.010   0.003  -0.001  -0.000   0.001
 total augmentation occupancy for first ion, spin component:           1
  1.909  -0.001   0.001  -0.005   0.001  -0.016   0.000  -0.000   0.005  -0.000  -0.004  -0.001  -0.001   0.001   0.005   0.001
 -0.001   1.923  -0.003   0.002  -0.003   0.000  -0.032   0.001  -0.001   0.004  -0.007  -0.000   0.005   0.002   0.002  -0.008
  0.001  -0.003   1.925  -0.005   0.000  -0.000   0.001  -0.028   0.001  -0.000   0.003   0.014  -0.001   0.050  -0.001  -0.000
 -0.005   0.002  -0.005   1.925  -0.001   0.005  -0.001   0.001  -0.033   0.000  -0.012  -0.000   0.002   0.003   0.008   0.000
  0.001  -0.003   0.000  -0.001   1.907  -0.000   0.004  -0.000   0.000  -0.016  -0.002  -0.001   0.007   0.001  -0.001  -0.001
 -0.016   0.000  -0.000   0.005  -0.000   0.014  -0.000   0.000   0.000   0.000   0.001   0.000   0.000  -0.000   0.003  -0.000
  0.000  -0.032   0.001  -0.001   0.004  -0.000   0.010  -0.000   0.000   0.000   0.002   0.000   0.017  -0.001  -0.001  -0.001
 -0.000   0.001  -0.028   0.001  -0.000   0.000  -0.000   0.013  -0.000   0.000  -0.044   0.002   0.000   0.023   0.001   0.000
  0.005  -0.001   0.001  -0.033   0.000   0.000   0.000  -0.000   0.010  -0.000   0.003   0.000  -0.001  -0.001   0.017   0.000
 -0.000   0.004  -0.000   0.000  -0.016   0.000   0.000   0.000  -0.000   0.014   0.000   0.000   0.003  -0.000   0.000  -0.000
 -0.004  -0.007   0.003  -0.012  -0.002   0.001   0.002  -0.044   0.003   0.000   1.712  -0.134  -0.002   0.126  -0.004   0.000
 -0.001  -0.000   0.014  -0.000  -0.001   0.000   0.000   0.002   0.000   0.000  -0.134   0.017  -0.000  -0.022  -0.001  -0.000
 -0.001   0.005  -0.001   0.002   0.007   0.000   0.017   0.000  -0.001   0.003  -0.002  -0.000   0.209   0.003   0.003  -0.013
  0.001   0.002   0.050   0.003   0.001  -0.000  -0.001   0.023  -0.001  -0.000   0.126  -0.022   0.003   0.122   0.005  -0.000
  0.005   0.002  -0.001   0.008  -0.001   0.003  -0.001   0.001   0.017   0.000  -0.004  -0.001   0.003   0.005   0.213  -0.000
  0.001  -0.008  -0.000   0.000  -0.001  -0.000  -0.001   0.000   0.000  -0.000   0.000  -0.000  -0.013  -0.000  -0.000   0.001
  0.000   0.001  -0.013   0.001   0.000   0.000  -0.000  -0.001  -0.000   0.000  -0.018   0.002  -0.000  -0.008  -0.000  -0.000
  0.000   0.000  -0.001  -0.008   0.001  -0.000   0.000   0.000  -0.001  -0.000   0.000  -0.000  -0.000  -0.000  -0.013  -0.000
 total augmentation occupancy for first ion, spin component:           2
 -0.000  -0.000   0.000   0.000   0.000   0.000  -0.000  -0.000  -0.000  -0.000   0.000  -0.000  -0.000  -0.000   0.000   0.000
 -0.000   0.000  -0.000  -0.000   0.000   0.000  -0.000   0.000  -0.000  -0.000  -0.000   0.000   0.000  -0.000  -0.000  -0.000
  0.000  -0.000  -0.000  -0.000   0.000  -0.000  -0.000   0.000  -0.000  -0.000   0.000  -0.000   0.000   0.000   0.000  -0.000
  0.000  -0.000  -0.000   0.000  -0.000  -0.000  -0.000   0.000  -0.000   0.000  -0.000   0.000  -0.000  -0.000   0.000   0.000
  0.000   0.000   0.000  -0.000  -0.000  -0.000  -0.000  -0.000  -0.000   0.000   0.000  -0.000   0.000  -0.000  -0.000  -0.000
  0.000   0.000  -0.000  -0.000  -0.000  -0.000   0.000   0.000   0.000   0.000  -0.000   0.000   0.000   0.000   0.000  -0.000
 -0.000  -0.000  -0.000  -0.000  -0.000   0.000  -0.000   0.000   0.000   0.000  -0.000  -0.000  -0.000   0.000   0.000   0.000
 -0.000   0.000   0.000   0.000  -0.000   0.000   0.000  -0.000   0.000   0.000  -0.000   0.000  -0.000  -0.000  -0.000   0.000
 -0.000  -0.000  -0.000  -0.000  -0.000   0.000   0.000   0.000  -0.000   0.000  -0.000  -0.000   0.000   0.000  -0.000  -0.000
 -0.000  -0.000  -0.000   0.000   0.000   0.000   0.000   0.000   0.000  -0.000  -0.000   0.000   0.000   0.000   0.000   0.000
  0.000  -0.000   0.000  -0.000   0.000  -0.000  -0.000  -0.000  -0.000  -0.000  -0.000   0.000  -0.000  -0.000  -0.000   0.000
 -0.000   0.000  -0.000   0.000  -0.000   0.000  -0.000   0.000  -0.000   0.000   0.000   0.000   0.000   0.000   0.000   0.000
 -0.000   0.000   0.000  -0.000   0.000   0.000  -0.000  -0.000   0.000   0.000  -0.000   0.000  -0.000   0.000  -0.000   0.000
 -0.000  -0.000   0.000  -0.000  -0.000   0.000   0.000  -0.000   0.000   0.000  -0.000   0.000   0.000  -0.000   0.000  -0.000
  0.000  -0.000   0.000   0.000  -0.000   0.000   0.000  -0.000  -0.000   0.000  -0.000   0.000  -0.000   0.000  -0.000   0.000
  0.000  -0.000  -0.000   0.000  -0.000  -0.000   0.000   0.000  -0.000   0.000   0.000   0.000   0.000  -0.000   0.000  -0.000
  0.000  -0.000   0.000  -0.000   0.000  -0.000   0.000  -0.000   0.000  -0.000   0.000  -0.000  -0.000  -0.000  -0.000   0.000
 -0.000   0.000  -0.000   0.000   0.000  -0.000  -0.000   0.000  -0.000  -0.000   0.000   0.000   0.000  -0.000   0.000  -0.000


------------------------ aborting loop because EDIFF is reached ----------------------------------------


    CHARGE:  cpu time      0.1094: real time      0.1099
    FORLOC:  cpu time      0.0019: real time      0.0019
    FORNL :  cpu time      0.2315: real time      0.2336
    STRESS:  cpu time      1.5305: real time      1.5438
    FORCOR:  cpu time      0.0381: real time      0.0383
    FORHAR:  cpu time      0.0044: real time      0.0045
    MIXING:  cpu time      0.0014: real time      0.0014
    OFIELD:  cpu time      0.0000: real time      0.0000

 ---------------------------------------------------------------------------------------------

         DFTD3 V3.0 Rev 1        
 Edisp (eV)   -4.66883

 E6    (eV) :    -2.5803
 E8    (eV) :    -2.0885
 % E8        : 44.73
    FORVDW:  cpu time      0.0098: real time      0.0098

  FORCE on cell =-STRESS in cart. coord.  units (eV):
  Direction    XX          YY          ZZ          XY          YZ          ZX
  --------------------------------------------------------------------------------------
  Alpha Z   137.59429   137.59429   137.59429
  Ewald  132588.90139132588.90139************    -0.00000    -0.00000    -0.00000
  Hartree136495.92166136495.92166************     0.00000    -0.00000    -0.00000
  E(xc)    -773.06841  -773.06828  -774.96147    -0.00011     0.00000     0.00000
  Local  ************************273735.39001     0.00203    -0.00000    -0.00000
  n-local  -253.53234  -266.59152  -261.98710    -7.60987    -0.04532    -0.00902
  augment  1135.38428  1135.38640  1136.91843    -0.00183    -0.00002    -0.00004
  Kinetic  1081.80673  1083.17439  1090.09976     1.02511    -0.90300     1.11037
  Fock        0.00000     0.00000     0.00000     0.00000     0.00000     0.00000
  vdW        -4.93203    -4.93203    -2.45968     0.00000    -0.00000    -0.00000
  -------------------------------------------------------------------------------------
  Total      -7.54253    -7.54253     3.19058    -0.00000     0.00000     0.00000
  in kB     -15.62254   -15.62254     6.60852    -0.00000     0.00000     0.00000
  external pressure =       -8.21 kB  Pullay stress =        0.00 kB


 VOLUME and BASIS-vectors are now :
 -----------------------------------------------------------------------------
  energy-cutoff  :      600.00
  volume of cell :      773.53
      direct lattice vectors                 reciprocal lattice vectors
     5.112382028  0.000000000  0.000000000     0.195603536 -0.112931754  0.000000000
     2.556191014  4.427452710  0.000000000     0.000000000  0.225863508  0.000000000
     0.000000000  0.000000000 34.174242446     0.000000000  0.000000000  0.029261804

  length of vectors
     5.112382028  5.112382028 34.174242446     0.225863508  0.225863508  0.029261804


 FORCES acting on ions
    electron-ion (+dipol)            ewald-force                    non-local-force                 convergence-correction
 -----------------------------------------------------------------------------------------------
   -.399E+00 -.230E+00 0.318E+04   0.570E-01 0.329E-01 -.318E+04   0.316E+00 0.182E+00 -.167E+01   -.436E-01 -.252E-01 0.275E+00
   0.399E+00 -.230E+00 0.318E+04   -.570E-01 0.329E-01 -.318E+04   -.316E+00 0.182E+00 -.167E+01   0.436E-01 -.252E-01 0.275E+00
   0.274E-05 0.460E+00 0.318E+04   -.417E-08 -.658E-01 -.318E+04   0.705E-17 -.365E+00 -.167E+01   0.108E-07 0.503E-01 0.275E+00
   0.258E-05 0.149E-05 0.318E+04   0.502E-08 0.461E-08 -.318E+04   -.477E-17 0.239E-17 -.366E+01   -.103E-08 -.597E-09 0.286E+00
   -.262E-05 -.228E+01 0.359E+02   -.579E-08 0.127E+01 -.356E+02   -.206E-16 0.102E+01 -.841E+00   -.212E-08 -.212E-01 0.481E+00
   -.232E-05 -.134E-05 0.340E+02   0.457E-08 -.819E-08 -.342E+02   0.522E-17 0.333E-17 -.212E+00   0.116E-08 0.672E-09 0.505E+00
   0.197E+01 0.114E+01 0.359E+02   -.110E+01 -.636E+00 -.356E+02   -.887E+00 -.512E+00 -.841E+00   0.184E-01 0.106E-01 0.481E+00
   -.197E+01 0.114E+01 0.359E+02   0.110E+01 -.636E+00 -.356E+02   0.887E+00 -.512E+00 -.841E+00   -.184E-01 0.106E-01 0.481E+00
   -.123E-05 -.709E-06 -.304E+04   -.618E-08 -.249E-08 0.304E+04   -.677E-18 0.185E-17 -.671E+01   0.359E-07 0.207E-07 0.634E+00
   -.658E-06 -.117E-01 -.312E+04   0.521E-08 -.823E-08 0.312E+04   -.240E-18 0.360E-01 0.348E+01   0.360E-08 -.212E-01 0.284E+00
   -.102E-01 0.587E-02 -.312E+04   -.489E-08 0.817E-08 0.312E+04   0.312E-01 -.180E-01 0.348E+01   -.183E-01 0.106E-01 0.284E+00
   0.102E-01 0.587E-02 -.312E+04   0.609E-08 0.220E-08 0.312E+04   -.312E-01 -.180E-01 0.348E+01   0.183E-01 0.106E-01 0.284E+00
   -.143E-06 -.827E-07 -.446E+03   -.251E-09 -.139E-09 0.454E+03   0.907E-19 0.409E-19 -.322E+01   -.196E-09 -.113E-09 0.285E-01
 -----------------------------------------------------------------------------------------------
   -.142E-05 -.814E-06 0.632E+01   0.994E-13 -.356E-13 -.568E-13   0.111E-15 0.389E-15 -.109E+02   0.720E-09 0.418E-09 0.457E+01
 
 
 POSITION                                       TOTAL-FORCE (eV/Angst)
 -----------------------------------------------------------------------------------
      1.27810      0.73791     15.00000        -0.069279     -0.039998      0.176332
      3.83429      0.73791     15.00000         0.069279     -0.039998      0.176332
      2.55619      2.95164     15.00000        -0.000000      0.079996      0.176332
      5.11238      2.95164     15.00000        -0.000000      0.000000      0.152025
      5.11238      1.47582     17.08712        -0.000000     -0.002198     -0.051436
      2.55619      1.47582     17.08712        -0.000000      0.000000      0.060863
      6.39048      3.68954     17.08712         0.001903      0.001099     -0.051436
      3.83429      3.68954     17.08712        -0.001903      0.001099     -0.051436
      0.00000      0.00000     19.17424        -0.000000      0.000000     -4.618388
      2.55619      0.00000     19.17424        -0.000000      0.003075     -0.163080
      1.27810      2.21373     19.17424         0.002663     -0.001537     -0.163080
      3.83429      2.21373     19.17424        -0.002663     -0.001537     -0.163080
      0.00000      0.00000     20.45921        -0.000000      0.000000      4.520054
 -----------------------------------------------------------------------------------
    total drift:                               -0.000001     -0.000001      0.008459


--------------------------------------------------------------------------------------------------------



  FREE ENERGIE OF THE ION-ELECTRON SYSTEM (eV)
  ---------------------------------------------------
  free  energy   TOTEN  =       -48.15679765 eV

  energy  without entropy=      -48.12212454  energy(sigma->0) =      -48.13946109
 
 d Force =-0.5892025E+00[-0.148E+01, 0.298E+00]  d Energy =-0.3732917E+00-0.216E+00
 d Force =-0.1435213E+03[-0.148E+03,-0.139E+03]  d Ewald  =-0.1430058E+03-0.516E+00


--------------------------------------------------------------------------------------------------------


    POTLOK:  cpu time      0.0506: real time      0.0508


--------------------------------------------------------------------------------------------------------




--------------------------------------------------------------------------------------------------------


    WAVPRE:  cpu time      0.0044: real time      0.0218
    FEWALD:  cpu time      0.0003: real time      0.0003
    ORTHCH:  cpu time      0.2172: real time      0.2198
     LOOP+:  cpu time     23.9477: real time     24.2147


--------------------------------------- Iteration      7(   1)  ---------------------------------------


    POTLOK:  cpu time      0.0475: real time      0.0482
    SETDIJ:  cpu time      0.0032: real time      0.0032
     EDDAV:  cpu time      2.2528: real time      2.2745
       DOS:  cpu time      0.0004: real time      0.0004
    CHARGE:  cpu time      0.1256: real time      0.1262
    MIXING:  cpu time      0.0008: real time      0.0008
    --------------------------------------------
      LOOP:  cpu time      2.4302: real time      2.4532

 eigenvalue-minimisations  :  1920
 total energy-change (2. order) :-0.4212494E+00  (-0.2100168E+01)
 number of electron     133.0000045 magnetization      -0.0000995
 augmentation part       84.2619350 magnetization      -0.0000207

 Broyden mixing:
  rms(total) = 0.13550E+00    rms(broyden)= 0.13546E+00
  rms(prec ) = 0.13820E+00
  weight for this iteration     100.00

 Free energy of the ion-electron system (eV)
  ---------------------------------------------------
  alpha Z        PSCENC =       137.59429322
  Ewald energy   TEWEN  =    123726.36185811
  -Hartree energ DENC   =   -139145.99785932
  -exchange      EXHF   =         0.00000000
  -V(xc)+E(xc)   XCENC  =       536.14476771
  PAW double counting   =     15698.55520689   -16991.38394700
  entropy T*S    EENTRO =        -0.03942137
  eigenvalues    EBANDS =      -709.36167826
  atomic energy  EATOM  =     16704.21750749
  Solvation  Ecorr_sol  =         0.00000000
  ---------------------------------------------------
  free energy    TOTEN  =       -43.90927252 eV

  energy without entropy =      -43.86985116  energy(sigma->0) =      -43.88956184


--------------------------------------------------------------------------------------------------------




--------------------------------------- Iteration      7(   2)  ---------------------------------------


    POTLOK:  cpu time      0.0454: real time      0.0465
    SETDIJ:  cpu time      0.0031: real time      0.0032
     EDDAV:  cpu time      3.0957: real time      3.1250
       DOS:  cpu time      0.0013: real time      0.0014
    CHARGE:  cpu time      0.1197: real time      0.1202
    MIXING:  cpu time      0.0010: real time      0.0010
    --------------------------------------------
      LOOP:  cpu time      3.2662: real time      3.2973

 eigenvalue-minimisations  :  2752
 total energy-change (2. order) :-0.6798149E-02  (-0.3067243E-01)
 number of electron     133.0000045 magnetization      -0.0000981
 augmentation part       84.2947793 magnetization      -0.0000377

 Broyden mixing:
  rms(total) = 0.77247E-01    rms(broyden)= 0.77246E-01
  rms(prec ) = 0.78988E-01
  weight for this iteration     100.00

 eigenvalues of (default mixing * dielectric matrix)
  average eigenvalue GAMMA=   1.4445
  1.4445

 Free energy of the ion-electron system (eV)
  ---------------------------------------------------
  alpha Z        PSCENC =       137.59429322
  Ewald energy   TEWEN  =    123726.36185811
  -Hartree energ DENC   =   -139141.36408026
  -exchange      EXHF   =         0.00000000
  -V(xc)+E(xc)   XCENC  =       536.13255996
  PAW double counting   =     15669.73750843   -16961.85912775
  entropy T*S    EENTRO =        -0.03846936
  eigenvalues    EBANDS =      -714.69812051
  atomic energy  EATOM  =     16704.21750749
  Solvation  Ecorr_sol  =         0.00000000
  ---------------------------------------------------
  free energy    TOTEN  =       -43.91607067 eV

  energy without entropy =      -43.87760132  energy(sigma->0) =      -43.89683599


--------------------------------------------------------------------------------------------------------




--------------------------------------- Iteration      7(   3)  ---------------------------------------


    POTLOK:  cpu time      0.0461: real time      0.0539
    SETDIJ:  cpu time      0.0032: real time      0.0032
     EDDAV:  cpu time      2.6890: real time      2.7141
       DOS:  cpu time      0.0013: real time      0.0013
    CHARGE:  cpu time      0.1121: real time      0.1126
    MIXING:  cpu time      0.0016: real time      0.0016
    --------------------------------------------
      LOOP:  cpu time      2.8533: real time      2.8867

 eigenvalue-minimisations  :  2432
 total energy-change (2. order) :-0.5476679E-02  (-0.9109962E-02)
 number of electron     133.0000045 magnetization      -0.0000970
 augmentation part       84.2565883 magnetization      -0.0000292

 Broyden mixing:
  rms(total) = 0.94378E-01    rms(broyden)= 0.94374E-01
  rms(prec ) = 0.98829E-01
  weight for this iteration     100.00

 eigenvalues of (default mixing * dielectric matrix)
  average eigenvalue GAMMA=   1.3683
  2.3477  0.3890

 Free energy of the ion-electron system (eV)
  ---------------------------------------------------
  alpha Z        PSCENC =       137.59429322
  Ewald energy   TEWEN  =    123726.36185811
  -Hartree energ DENC   =   -139141.75140939
  -exchange      EXHF   =         0.00000000
  -V(xc)+E(xc)   XCENC  =       536.20544013
  PAW double counting   =     15649.28011690   -16941.45237575
  entropy T*S    EENTRO =        -0.03868747
  eigenvalues    EBANDS =      -714.33829060
  atomic energy  EATOM  =     16704.21750749
  Solvation  Ecorr_sol  =         0.00000000
  ---------------------------------------------------
  free energy    TOTEN  =       -43.92154735 eV

  energy without entropy =      -43.88285988  energy(sigma->0) =      -43.90220362


--------------------------------------------------------------------------------------------------------




--------------------------------------- Iteration      7(   4)  ---------------------------------------


    POTLOK:  cpu time      0.0452: real time      0.0484
    SETDIJ:  cpu time      0.0032: real time      0.0032
     EDDAV:  cpu time      2.4541: real time      2.4782
       DOS:  cpu time      0.0017: real time      0.0017
    CHARGE:  cpu time      0.1212: real time      0.1221
    MIXING:  cpu time      0.0013: real time      0.0013
    --------------------------------------------
      LOOP:  cpu time      2.6266: real time      2.6549

 eigenvalue-minimisations  :  2176
 total energy-change (2. order) : 0.1201504E-01  (-0.6123041E-02)
 number of electron     133.0000045 magnetization      -0.0000965
 augmentation part       84.2643215 magnetization      -0.0000280

 Broyden mixing:
  rms(total) = 0.12680E-01    rms(broyden)= 0.12668E-01
  rms(prec ) = 0.15592E-01
  weight for this iteration     100.00

 eigenvalues of (default mixing * dielectric matrix)
  average eigenvalue GAMMA=   1.1780
  2.3759  0.7694  0.3887

 Free energy of the ion-electron system (eV)
  ---------------------------------------------------
  alpha Z        PSCENC =       137.59429322
  Ewald energy   TEWEN  =    123726.36185811
  -Hartree energ DENC   =   -139139.21301486
  -exchange      EXHF   =         0.00000000
  -V(xc)+E(xc)   XCENC  =       536.21450366
  PAW double counting   =     15634.63351958   -16926.53687522
  entropy T*S    EENTRO =        -0.03903914
  eigenvalues    EBANDS =      -717.14228516
  atomic energy  EATOM  =     16704.21750749
  Solvation  Ecorr_sol  =         0.00000000
  ---------------------------------------------------
  free energy    TOTEN  =       -43.90953232 eV

  energy without entropy =      -43.87049318  energy(sigma->0) =      -43.89001275


--------------------------------------------------------------------------------------------------------




--------------------------------------- Iteration      7(   5)  ---------------------------------------


    POTLOK:  cpu time      0.0482: real time      0.0488
    SETDIJ:  cpu time      0.0034: real time      0.0034
     EDDAV:  cpu time      3.2895: real time      3.3220
       DOS:  cpu time      0.0013: real time      0.0013
    CHARGE:  cpu time      0.1197: real time      0.1207
    MIXING:  cpu time      0.0010: real time      0.0010
    --------------------------------------------
      LOOP:  cpu time      3.4630: real time      3.4972

 eigenvalue-minimisations  :  2976
 total energy-change (2. order) :-0.5972638E-03  (-0.1556278E-02)
 number of electron     133.0000045 magnetization      -0.0000959
 augmentation part       84.2847328 magnetization      -0.0000262

 Broyden mixing:
  rms(total) = 0.15330E-01    rms(broyden)= 0.15330E-01
  rms(prec ) = 0.17468E-01
  weight for this iteration     100.00

 eigenvalues of (default mixing * dielectric matrix)
  average eigenvalue GAMMA=   1.0129
  2.3868  0.9877  0.3997  0.2775

 Free energy of the ion-electron system (eV)
  ---------------------------------------------------
  alpha Z        PSCENC =       137.59429322
  Ewald energy   TEWEN  =    123726.36185811
  -Hartree energ DENC   =   -139138.22672441
  -exchange      EXHF   =         0.00000000
  -V(xc)+E(xc)   XCENC  =       536.19414500
  PAW double counting   =     15633.24873089   -16924.98674452
  entropy T*S    EENTRO =        -0.03829983
  eigenvalues    EBANDS =      -718.27489554
  atomic energy  EATOM  =     16704.21750749
  Solvation  Ecorr_sol  =         0.00000000
  ---------------------------------------------------
  free energy    TOTEN  =       -43.91012958 eV

  energy without entropy =      -43.87182975  energy(sigma->0) =      -43.89097967


--------------------------------------------------------------------------------------------------------




--------------------------------------- Iteration      7(   6)  ---------------------------------------


    POTLOK:  cpu time      0.0448: real time      0.0454
    SETDIJ:  cpu time      0.0047: real time      0.0047
     EDDAV:  cpu time      3.0968: real time      3.1270
       DOS:  cpu time      0.0009: real time      0.0009
    CHARGE:  cpu time      0.1161: real time      0.1172
    MIXING:  cpu time      0.0012: real time      0.0012
    --------------------------------------------
      LOOP:  cpu time      3.2645: real time      3.2965

 eigenvalue-minimisations  :  2816
 total energy-change (2. order) : 0.4621457E-03  (-0.2289937E-03)
 number of electron     133.0000045 magnetization      -0.0000949
 augmentation part       84.2832609 magnetization      -0.0000324

 Broyden mixing:
  rms(total) = 0.54682E-02    rms(broyden)= 0.54680E-02
  rms(prec ) = 0.57797E-02
  weight for this iteration     100.00

 eigenvalues of (default mixing * dielectric matrix)
  average eigenvalue GAMMA=   0.9835
  2.3807  1.2340  0.4779  0.4779  0.3472

 Free energy of the ion-electron system (eV)
  ---------------------------------------------------
  alpha Z        PSCENC =       137.59429322
  Ewald energy   TEWEN  =    123726.36185811
  -Hartree energ DENC   =   -139138.26829359
  -exchange      EXHF   =         0.00000000
  -V(xc)+E(xc)   XCENC  =       536.19532126
  PAW double counting   =     15633.34479122   -16925.08565852
  entropy T*S    EENTRO =        -0.03852071
  eigenvalues    EBANDS =      -718.23096592
  atomic energy  EATOM  =     16704.21750749
  Solvation  Ecorr_sol  =         0.00000000
  ---------------------------------------------------
  free energy    TOTEN  =       -43.90966743 eV

  energy without entropy =      -43.87114672  energy(sigma->0) =      -43.89040708


--------------------------------------------------------------------------------------------------------




--------------------------------------- Iteration      7(   7)  ---------------------------------------


    POTLOK:  cpu time      0.0458: real time      0.0465
    SETDIJ:  cpu time      0.0031: real time      0.0032
     EDDAV:  cpu time      2.2103: real time      2.2303
       DOS:  cpu time      0.0012: real time      0.0012
    --------------------------------------------
      LOOP:  cpu time      2.2604: real time      2.2812

 eigenvalue-minimisations  :  1856
 total energy-change (2. order) : 0.3481644E-05  (-0.1915137E-04)
 number of electron     133.0000045 magnetization      -0.0000949
 augmentation part       84.2832609 magnetization      -0.0000324

 Free energy of the ion-electron system (eV)
  ---------------------------------------------------
  alpha Z        PSCENC =       137.59429322
  Ewald energy   TEWEN  =    123726.36185811
  -Hartree energ DENC   =   -139138.31652136
  -exchange      EXHF   =         0.00000000
  -V(xc)+E(xc)   XCENC  =       536.20137585
  PAW double counting   =     15633.77221430   -16925.55002283
  entropy T*S    EENTRO =        -0.03861985
  eigenvalues    EBANDS =      -718.15174889
  atomic energy  EATOM  =     16704.21750749
  Solvation  Ecorr_sol  =         0.00000000
  ---------------------------------------------------
  free energy    TOTEN  =       -43.90966395 eV

  energy without entropy =      -43.87104410  energy(sigma->0) =      -43.89035403


--------------------------------------------------------------------------------------------------------




 average (electrostatic) potential at core
  the test charge radii are     0.9430  0.5201
  (the norm of the test charge is              1.0000)
       1 -73.5899       2 -73.5899       3 -73.5899       4 -73.6268       5 -73.8565
       6 -73.8476       7 -73.8565       8 -73.8565       9 -74.0604      10 -73.5276
      11 -73.5276      12 -73.5276      13 -38.6500
 
 
 
 E-fermi :  -2.5789     XC(G=0):  -2.9986     alpha+bet : -2.4952

 Fermi energy:        -2.5789274707

 spin component 1

 k-point     1 :       0.0000    0.0000    0.0000
  band No.  band energies     occupation 
      1     -11.1810      1.00000
      2      -9.2841      1.00000
      3      -7.7691      1.00000
      4      -7.3566      1.00000
      5      -7.2828      1.00000
      6      -7.2828      1.00000
      7      -7.1223      1.00000
      8      -7.0812      1.00000
      9      -7.0812      1.00000
     10      -6.7785      1.00000
     11      -6.7070      1.00000
     12      -6.7070      1.00000
     13      -6.6609      1.00000
     14      -6.6609      1.00000
     15      -6.6559      1.00000
     16      -6.4714      1.00000
     17      -6.0616      1.00000
     18      -6.0616      1.00000
     19      -5.9313      1.00000
     20      -5.6531      1.00000
     21      -5.6531      1.00000
     22      -5.6132      1.00000
     23      -5.5639      1.00000
     24      -5.5249      1.00000
     25      -5.5249      1.00000
     26      -5.3462      1.00000
     27      -5.3462      1.00000
     28      -5.3259      1.00000
     29      -5.3180      1.00000
     30      -5.3180      1.00000
     31      -5.2880      1.00000
     32      -5.2137      1.00000
     33      -5.2137      1.00000
     34      -5.0596      1.00000
     35      -5.0596      1.00000
     36      -4.8640      1.00000
     37      -4.7977      1.00000
     38      -4.7977      1.00000
     39      -4.6742      1.00000
     40      -4.6741      1.00000
     41      -4.6366      1.00000
     42      -4.6338      1.00000
     43      -4.6338      1.00000
     44      -4.5836      1.00000
     45      -4.3931      1.00000
     46      -4.3931      1.00000
     47      -4.2680      1.00000
     48      -4.2680      1.00000
     49      -4.2242      1.00000
     50      -4.2096      1.00000
     51      -4.1795      1.00000
     52      -4.1795      1.00000
     53      -4.1635      1.00000
     54      -4.1635      1.00000
     55      -4.1419      1.00000
     56      -4.1419      1.00000
     57      -4.1373      1.00000
     58      -3.9973      1.00000
     59      -3.9973      1.00000
     60      -3.9250      1.00000
     61      -3.9250      1.00000
     62      -3.9177      1.00000
     63      -3.8656      1.00000
     64      -3.2119      1.00000
     65      -2.5180      0.09471
     66      -2.5180      0.09468
     67      -2.5180      0.09465
     68      -1.4140      0.00000
     69      -1.4140      0.00000
     70      -1.3881      0.00000
     71      -0.9984      0.00000
     72      -0.9814      0.00000
     73      -0.9814      0.00000
     74      -0.5426      0.00000
     75       1.6773      0.00000
     76       1.9340      0.00000
     77       1.9340      0.00000
     78       1.9925      0.00000
     79       2.1312      0.00000
     80       2.2801      0.00000
     81       2.6507      0.00000
     82       2.8083      0.00000
     83       3.1145      0.00000
     84       3.1145      0.00000
     85       3.4699      0.00000
     86       3.5558      0.00000
     87       3.7784      0.00000
     88       3.8891      0.00000
     89       3.8891      0.00000
     90       4.7713      0.00000
     91       4.8730      0.00000
     92       5.7743      0.00000
     93       6.2980      0.00000
     94       6.3373      0.00000
     95       6.3373      0.00000
     96       6.4298      0.00000

 k-point     2 :       0.2000    0.0000    0.0000
  band No.  band energies     occupation 
      1     -10.8651      1.00000
      2      -8.9913      1.00000
      3      -7.6090      1.00000
      4      -7.5223      1.00000
      5      -7.2661      1.00000
      6      -7.2063      1.00000
      7      -7.1079      1.00000
      8      -7.0196      1.00000
      9      -6.9754      1.00000
     10      -6.7511      1.00000
     11      -6.6594      1.00000
     12      -6.6351      1.00000
     13      -6.5645      1.00000
     14      -6.5017      1.00000
     15      -6.4946      1.00000
     16      -6.3949      1.00000
     17      -6.0517      1.00000
     18      -6.0263      1.00000
     19      -5.9243      1.00000
     20      -5.6647      1.00000
     21      -5.6005      1.00000
     22      -5.5993      1.00000
     23      -5.5824      1.00000
     24      -5.5561      1.00000
     25      -5.5289      1.00000
     26      -5.4508      1.00000
     27      -5.4180      1.00000
     28      -5.4177      1.00000
     29      -5.2947      1.00000
     30      -5.2913      1.00000
     31      -5.2532      1.00000
     32      -5.2445      1.00000
     33      -5.1927      1.00000
     34      -5.1585      1.00000
     35      -5.1211      1.00000
     36      -5.1082      1.00000
     37      -4.9124      1.00000
     38      -4.8708      1.00000
     39      -4.7917      1.00000
     40      -4.7313      1.00000
     41      -4.7255      1.00000
     42      -4.6762      1.00000
     43      -4.6683      1.00000
     44      -4.6137      1.00000
     45      -4.5842      1.00000
     46      -4.4727      1.00000
     47      -4.4568      1.00000
     48      -4.4019      1.00000
     49      -4.3896      1.00000
     50      -4.3235      1.00000
     51      -4.3169      1.00000
     52      -4.3108      1.00000
     53      -4.2773      1.00000
     54      -4.2620      1.00000
     55      -4.2388      1.00000
     56      -4.2082      1.00000
     57      -4.1589      1.00000
     58      -4.1340      1.00000
     59      -4.0871      1.00000
     60      -4.0820      1.00000
     61      -4.0447      1.00000
     62      -4.0174      1.00000
     63      -3.9683      1.00000
     64      -3.8574      1.00000
     65      -3.0056      1.00000
     66      -2.6155      0.79502
     67      -2.5681      0.40086
     68      -2.5248      0.11887
     69      -1.5394      0.00000
     70      -1.4939      0.00000
     71      -0.7500      0.00000
     72      -0.0622      0.00000
     73       0.0160      0.00000
     74       0.5114      0.00000
     75       1.9819      0.00000
     76       2.2911      0.00000
     77       2.3035      0.00000
     78       2.4163      0.00000
     79       2.5790      0.00000
     80       2.7009      0.00000
     81       2.9554      0.00000
     82       3.0991      0.00000
     83       3.1415      0.00000
     84       3.2997      0.00000
     85       3.7843      0.00000
     86       3.9205      0.00000
     87       4.1287      0.00000
     88       4.4654      0.00000
     89       4.6157      0.00000
     90       5.0925      0.00000
     91       5.1688      0.00000
     92       5.9642      0.00000
     93       6.0045      0.00000
     94       6.2242      0.00000
     95       6.5489      0.00000
     96       6.6176      0.00000

 k-point     3 :       0.4000    0.0000    0.0000
  band No.  band energies     occupation 
      1      -9.9605      1.00000
      2      -8.6703      1.00000
      3      -8.1996      1.00000
      4      -7.3913      1.00000
      5      -7.0807      1.00000
      6      -7.0340      1.00000
      7      -6.9425      1.00000
      8      -6.8537      1.00000
      9      -6.7533      1.00000
     10      -6.6402      1.00000
     11      -6.5630      1.00000
     12      -6.4333      1.00000
     13      -6.3642      1.00000
     14      -6.2410      1.00000
     15      -6.2276      1.00000
     16      -6.1536      1.00000
     17      -5.9766      1.00000
     18      -5.9595      1.00000
     19      -5.9182      1.00000
     20      -5.9031      1.00000
     21      -5.8314      1.00000
     22      -5.8227      1.00000
     23      -5.7249      1.00000
     24      -5.6002      1.00000
     25      -5.5855      1.00000
     26      -5.4619      1.00000
     27      -5.4374      1.00000
     28      -5.4366      1.00000
     29      -5.4032      1.00000
     30      -5.3464      1.00000
     31      -5.3105      1.00000
     32      -5.2698      1.00000
     33      -5.2219      1.00000
     34      -5.2115      1.00000
     35      -5.1765      1.00000
     36      -5.1600      1.00000
     37      -5.1509      1.00000
     38      -5.0915      1.00000
     39      -5.0769      1.00000
     40      -5.0572      1.00000
     41      -5.0565      1.00000
     42      -4.9932      1.00000
     43      -4.8155      1.00000
     44      -4.8050      1.00000
     45      -4.7840      1.00000
     46      -4.7604      1.00000
     47      -4.7326      1.00000
     48      -4.6808      1.00000
     49      -4.6190      1.00000
     50      -4.5843      1.00000
     51      -4.5578      1.00000
     52      -4.5282      1.00000
     53      -4.4366      1.00000
     54      -4.4122      1.00000
     55      -4.4089      1.00000
     56      -4.3938      1.00000
     57      -4.3613      1.00000
     58      -4.2769      1.00000
     59      -4.1931      1.00000
     60      -4.1561      1.00000
     61      -4.1383      1.00000
     62      -4.1323      1.00000
     63      -4.0724      1.00000
     64      -4.0627      1.00000
     65      -3.3490      1.00000
     66      -2.6003      0.68791
     67      -2.5642      0.36652
     68      -2.2229      0.00000
     69      -1.5093      0.00000
     70      -1.4251      0.00000
     71      -1.0422      0.00000
     72       0.2152      0.00000
     73       0.9378      0.00000
     74       1.1104      0.00000
     75       2.2078      0.00000
     76       2.9659      0.00000
     77       3.2376      0.00000
     78       3.3087      0.00000
     79       3.4158      0.00000
     80       3.5081      0.00000
     81       3.8882      0.00000
     82       3.9977      0.00000
     83       4.1214      0.00000
     84       4.2876      0.00000
     85       4.7070      0.00000
     86       4.7895      0.00000
     87       4.8510      0.00000
     88       4.9968      0.00000
     89       5.0402      0.00000
     90       5.2073      0.00000
     91       5.3522      0.00000
     92       5.4805      0.00000
     93       5.8449      0.00000
     94       5.9909      0.00000
     95       6.0100      0.00000
     96       6.0284      0.00000

 k-point     4 :       0.4000    0.2000    0.0000
  band No.  band energies     occupation 
      1     -10.2528      1.00000
      2      -8.4527      1.00000
      3      -7.8863      1.00000
      4      -7.8430      1.00000
      5      -7.1706      1.00000
      6      -7.0741      1.00000
      7      -7.0278      1.00000
      8      -6.8315      1.00000
      9      -6.7874      1.00000
     10      -6.6167      1.00000
     11      -6.5443      1.00000
     12      -6.4892      1.00000
     13      -6.4208      1.00000
     14      -6.2910      1.00000
     15      -6.2853      1.00000
     16      -6.2305      1.00000
     17      -6.0146      1.00000
     18      -5.9952      1.00000
     19      -5.9402      1.00000
     20      -5.8422      1.00000
     21      -5.7376      1.00000
     22      -5.7124      1.00000
     23      -5.6607      1.00000
     24      -5.6483      1.00000
     25      -5.5619      1.00000
     26      -5.4976      1.00000
     27      -5.4413      1.00000
     28      -5.3955      1.00000
     29      -5.3711      1.00000
     30      -5.3571      1.00000
     31      -5.3382      1.00000
     32      -5.3168      1.00000
     33      -5.2657      1.00000
     34      -5.2086      1.00000
     35      -5.1591      1.00000
     36      -5.1055      1.00000
     37      -5.0633      1.00000
     38      -5.0209      1.00000
     39      -4.9759      1.00000
     40      -4.9565      1.00000
     41      -4.8941      1.00000
     42      -4.8818      1.00000
     43      -4.8576      1.00000
     44      -4.7998      1.00000
     45      -4.7711      1.00000
     46      -4.7258      1.00000
     47      -4.6755      1.00000
     48      -4.6264      1.00000
     49      -4.5955      1.00000
     50      -4.5838      1.00000
     51      -4.4911      1.00000
     52      -4.4616      1.00000
     53      -4.3955      1.00000
     54      -4.3633      1.00000
     55      -4.2935      1.00000
     56      -4.2868      1.00000
     57      -4.2293      1.00000
     58      -4.2189      1.00000
     59      -4.1882      1.00000
     60      -4.1755      1.00000
     61      -4.1647      1.00000
     62      -4.1345      1.00000
     63      -3.8513      1.00000
     64      -3.8436      1.00000
     65      -3.6863      1.00000
     66      -3.2126      1.00000
     67      -3.1264      1.00000
     68      -2.0118      0.00000
     69      -0.8419      0.00000
     70      -0.7885      0.00000
     71      -0.6918      0.00000
     72      -0.1469      0.00000
     73       0.5446      0.00000
     74       0.8408      0.00000
     75       2.4271      0.00000
     76       2.4750      0.00000
     77       2.5304      0.00000
     78       2.9261      0.00000
     79       3.1661      0.00000
     80       3.3113      0.00000
     81       3.5887      0.00000
     82       3.7101      0.00000
     83       4.1477      0.00000
     84       4.4119      0.00000
     85       4.4224      0.00000
     86       4.4750      0.00000
     87       4.6225      0.00000
     88       5.0240      0.00000
     89       5.3084      0.00000
     90       5.6272      0.00000
     91       5.7149      0.00000
     92       5.7635      0.00000
     93       5.9877      0.00000
     94       6.0737      0.00000
     95       6.1564      0.00000
     96       6.2164      0.00000

 k-point     5 :      -0.4000    0.2000    0.0000
  band No.  band energies     occupation 
      1      -9.1577      1.00000
      2      -9.1039      1.00000
      3      -7.9867      1.00000
      4      -7.6571      1.00000
      5      -7.4869      1.00000
      6      -7.0046      1.00000
      7      -6.7048      1.00000
      8      -6.5697      1.00000
      9      -6.5353      1.00000
     10      -6.5212      1.00000
     11      -6.5004      1.00000
     12      -6.2954      1.00000
     13      -6.2618      1.00000
     14      -6.2455      1.00000
     15      -6.2111      1.00000
     16      -6.0819      1.00000
     17      -6.0517      1.00000
     18      -6.0214      1.00000
     19      -5.9903      1.00000
     20      -5.9179      1.00000
     21      -5.8791      1.00000
     22      -5.7802      1.00000
     23      -5.7317      1.00000
     24      -5.6700      1.00000
     25      -5.6361      1.00000
     26      -5.6172      1.00000
     27      -5.5892      1.00000
     28      -5.5604      1.00000
     29      -5.5417      1.00000
     30      -5.4843      1.00000
     31      -5.4236      1.00000
     32      -5.3755      1.00000
     33      -5.3285      1.00000
     34      -5.2881      1.00000
     35      -5.2610      1.00000
     36      -5.2388      1.00000
     37      -5.1883      1.00000
     38      -5.1799      1.00000
     39      -5.1515      1.00000
     40      -5.0769      1.00000
     41      -5.0405      1.00000
     42      -4.9340      1.00000
     43      -4.8588      1.00000
     44      -4.8046      1.00000
     45      -4.7515      1.00000
     46      -4.7278      1.00000
     47      -4.6956      1.00000
     48      -4.6649      1.00000
     49      -4.6456      1.00000
     50      -4.5789      1.00000
     51      -4.5177      1.00000
     52      -4.4781      1.00000
     53      -4.4333      1.00000
     54      -4.4270      1.00000
     55      -4.3767      1.00000
     56      -4.3533      1.00000
     57      -4.3445      1.00000
     58      -4.2551      1.00000
     59      -4.2261      1.00000
     60      -4.2157      1.00000
     61      -4.1949      1.00000
     62      -4.1600      1.00000
     63      -4.1403      1.00000
     64      -4.0858      1.00000
     65      -3.7790      1.00000
     66      -3.4003      1.00000
     67      -2.8858      0.99999
     68      -2.0912      0.00000
     69      -1.2533      0.00000
     70      -0.5150      0.00000
     71      -0.3062      0.00000
     72       0.5837      0.00000
     73       0.8988      0.00000
     74       1.6992      0.00000
     75       2.2235      0.00000
     76       2.3911      0.00000
     77       2.9084      0.00000
     78       3.6107      0.00000
     79       3.6844      0.00000
     80       3.9793      0.00000
     81       4.1217      0.00000
     82       4.2124      0.00000
     83       4.2724      0.00000
     84       4.4056      0.00000
     85       4.4315      0.00000
     86       4.7641      0.00000
     87       4.8039      0.00000
     88       4.8896      0.00000
     89       4.9023      0.00000
     90       4.9220      0.00000
     91       5.5147      0.00000
     92       5.6162      0.00000
     93       5.6702      0.00000
     94       5.7226      0.00000
     95       5.8080      0.00000
     96       5.8982      0.00000
 Fermi energy:        -2.5789274707

 spin component 2

 k-point     1 :       0.0000    0.0000    0.0000
  band No.  band energies     occupation 
      1     -11.1810      1.00000
      2      -9.2841      1.00000
      3      -7.7691      1.00000
      4      -7.3566      1.00000
      5      -7.2828      1.00000
      6      -7.2828      1.00000
      7      -7.1224      1.00000
      8      -7.0812      1.00000
      9      -7.0812      1.00000
     10      -6.7785      1.00000
     11      -6.7070      1.00000
     12      -6.7070      1.00000
     13      -6.6609      1.00000
     14      -6.6609      1.00000
     15      -6.6559      1.00000
     16      -6.4714      1.00000
     17      -6.0616      1.00000
     18      -6.0616      1.00000
     19      -5.9313      1.00000
     20      -5.6531      1.00000
     21      -5.6531      1.00000
     22      -5.6132      1.00000
     23      -5.5639      1.00000
     24      -5.5249      1.00000
     25      -5.5249      1.00000
     26      -5.3463      1.00000
     27      -5.3463      1.00000
     28      -5.3259      1.00000
     29      -5.3180      1.00000
     30      -5.3180      1.00000
     31      -5.2880      1.00000
     32      -5.2137      1.00000
     33      -5.2137      1.00000
     34      -5.0596      1.00000
     35      -5.0596      1.00000
     36      -4.8640      1.00000
     37      -4.7977      1.00000
     38      -4.7977      1.00000
     39      -4.6742      1.00000
     40      -4.6742      1.00000
     41      -4.6366      1.00000
     42      -4.6338      1.00000
     43      -4.6338      1.00000
     44      -4.5836      1.00000
     45      -4.3931      1.00000
     46      -4.3931      1.00000
     47      -4.2680      1.00000
     48      -4.2680      1.00000
     49      -4.2242      1.00000
     50      -4.2096      1.00000
     51      -4.1795      1.00000
     52      -4.1795      1.00000
     53      -4.1635      1.00000
     54      -4.1635      1.00000
     55      -4.1419      1.00000
     56      -4.1419      1.00000
     57      -4.1373      1.00000
     58      -3.9973      1.00000
     59      -3.9973      1.00000
     60      -3.9250      1.00000
     61      -3.9250      1.00000
     62      -3.9178      1.00000
     63      -3.8656      1.00000
     64      -3.2119      1.00000
     65      -2.5180      0.09475
     66      -2.5180      0.09471
     67      -2.5180      0.09468
     68      -1.4140      0.00000
     69      -1.4140      0.00000
     70      -1.3881      0.00000
     71      -0.9984      0.00000
     72      -0.9814      0.00000
     73      -0.9814      0.00000
     74      -0.5426      0.00000
     75       1.6761      0.00000
     76       1.9340      0.00000
     77       1.9340      0.00000
     78       1.9887      0.00000
     79       2.1316      0.00000
     80       2.2834      0.00000
     81       2.6534      0.00000
     82       2.8058      0.00000
     83       3.1145      0.00000
     84       3.1145      0.00000
     85       3.4681      0.00000
     86       3.5555      0.00000
     87       3.7789      0.00000
     88       3.8891      0.00000
     89       3.8891      0.00000
     90       4.7715      0.00000
     91       4.8725      0.00000
     92       5.7741      0.00000
     93       6.2988      0.00000
     94       6.3373      0.00000
     95       6.3373      0.00000
     96       6.4286      0.00000

 k-point     2 :       0.2000    0.0000    0.0000
  band No.  band energies     occupation 
      1     -10.8651      1.00000
      2      -8.9913      1.00000
      3      -7.6091      1.00000
      4      -7.5223      1.00000
      5      -7.2661      1.00000
      6      -7.2063      1.00000
      7      -7.1079      1.00000
      8      -7.0196      1.00000
      9      -6.9754      1.00000
     10      -6.7511      1.00000
     11      -6.6594      1.00000
     12      -6.6351      1.00000
     13      -6.5645      1.00000
     14      -6.5017      1.00000
     15      -6.4947      1.00000
     16      -6.3949      1.00000
     17      -6.0517      1.00000
     18      -6.0263      1.00000
     19      -5.9243      1.00000
     20      -5.6647      1.00000
     21      -5.6005      1.00000
     22      -5.5993      1.00000
     23      -5.5825      1.00000
     24      -5.5561      1.00000
     25      -5.5289      1.00000
     26      -5.4508      1.00000
     27      -5.4180      1.00000
     28      -5.4177      1.00000
     29      -5.2947      1.00000
     30      -5.2913      1.00000
     31      -5.2533      1.00000
     32      -5.2445      1.00000
     33      -5.1927      1.00000
     34      -5.1585      1.00000
     35      -5.1211      1.00000
     36      -5.1082      1.00000
     37      -4.9124      1.00000
     38      -4.8708      1.00000
     39      -4.7917      1.00000
     40      -4.7313      1.00000
     41      -4.7255      1.00000
     42      -4.6762      1.00000
     43      -4.6683      1.00000
     44      -4.6137      1.00000
     45      -4.5842      1.00000
     46      -4.4727      1.00000
     47      -4.4568      1.00000
     48      -4.4019      1.00000
     49      -4.3896      1.00000
     50      -4.3235      1.00000
     51      -4.3169      1.00000
     52      -4.3108      1.00000
     53      -4.2773      1.00000
     54      -4.2620      1.00000
     55      -4.2388      1.00000
     56      -4.2082      1.00000
     57      -4.1589      1.00000
     58      -4.1340      1.00000
     59      -4.0871      1.00000
     60      -4.0820      1.00000
     61      -4.0447      1.00000
     62      -4.0174      1.00000
     63      -3.9683      1.00000
     64      -3.8574      1.00000
     65      -3.0056      1.00000
     66      -2.6155      0.79508
     67      -2.5681      0.40093
     68      -2.5249      0.11892
     69      -1.5394      0.00000
     70      -1.4939      0.00000
     71      -0.7500      0.00000
     72      -0.0622      0.00000
     73       0.0160      0.00000
     74       0.5114      0.00000
     75       1.9807      0.00000
     76       2.2911      0.00000
     77       2.2999      0.00000
     78       2.4166      0.00000
     79       2.5823      0.00000
     80       2.7010      0.00000
     81       2.9581      0.00000
     82       3.0964      0.00000
     83       3.1415      0.00000
     84       3.2996      0.00000
     85       3.7822      0.00000
     86       3.9209      0.00000
     87       4.1288      0.00000
     88       4.4653      0.00000
     89       4.6157      0.00000
     90       5.0929      0.00000
     91       5.1681      0.00000
     92       5.9642      0.00000
     93       6.0044      0.00000
     94       6.2237      0.00000
     95       6.5486      0.00000
     96       6.6177      0.00000

 k-point     3 :       0.4000    0.0000    0.0000
  band No.  band energies     occupation 
      1      -9.9605      1.00000
      2      -8.6703      1.00000
      3      -8.1996      1.00000
      4      -7.3913      1.00000
      5      -7.0807      1.00000
      6      -7.0340      1.00000
      7      -6.9425      1.00000
      8      -6.8537      1.00000
      9      -6.7533      1.00000
     10      -6.6402      1.00000
     11      -6.5630      1.00000
     12      -6.4333      1.00000
     13      -6.3642      1.00000
     14      -6.2410      1.00000
     15      -6.2276      1.00000
     16      -6.1536      1.00000
     17      -5.9766      1.00000
     18      -5.9595      1.00000
     19      -5.9182      1.00000
     20      -5.9031      1.00000
     21      -5.8314      1.00000
     22      -5.8228      1.00000
     23      -5.7249      1.00000
     24      -5.6002      1.00000
     25      -5.5855      1.00000
     26      -5.4619      1.00000
     27      -5.4374      1.00000
     28      -5.4366      1.00000
     29      -5.4032      1.00000
     30      -5.3464      1.00000
     31      -5.3105      1.00000
     32      -5.2698      1.00000
     33      -5.2219      1.00000
     34      -5.2115      1.00000
     35      -5.1765      1.00000
     36      -5.1600      1.00000
     37      -5.1509      1.00000
     38      -5.0915      1.00000
     39      -5.0769      1.00000
     40      -5.0572      1.00000
     41      -5.0565      1.00000
     42      -4.9932      1.00000
     43      -4.8155      1.00000
     44      -4.8050      1.00000
     45      -4.7840      1.00000
     46      -4.7604      1.00000
     47      -4.7326      1.00000
     48      -4.6808      1.00000
     49      -4.6190      1.00000
     50      -4.5843      1.00000
     51      -4.5578      1.00000
     52      -4.5282      1.00000
     53      -4.4366      1.00000
     54      -4.4122      1.00000
     55      -4.4089      1.00000
     56      -4.3938      1.00000
     57      -4.3613      1.00000
     58      -4.2769      1.00000
     59      -4.1931      1.00000
     60      -4.1561      1.00000
     61      -4.1383      1.00000
     62      -4.1323      1.00000
     63      -4.0724      1.00000
     64      -4.0627      1.00000
     65      -3.3490      1.00000
     66      -2.6003      0.68796
     67      -2.5642      0.36658
     68      -2.2229      0.00000
     69      -1.5093      0.00000
     70      -1.4251      0.00000
     71      -1.0422      0.00000
     72       0.2152      0.00000
     73       0.9378      0.00000
     74       1.1104      0.00000
     75       2.2077      0.00000
     76       2.9645      0.00000
     77       3.2347      0.00000
     78       3.3087      0.00000
     79       3.4165      0.00000
     80       3.5109      0.00000
     81       3.8908      0.00000
     82       3.9948      0.00000
     83       4.1208      0.00000
     84       4.2876      0.00000
     85       4.7042      0.00000
     86       4.7872      0.00000
     87       4.8515      0.00000
     88       4.9982      0.00000
     89       5.0415      0.00000
     90       5.2072      0.00000
     91       5.3540      0.00000
     92       5.4783      0.00000
     93       5.8446      0.00000
     94       5.9909      0.00000
     95       6.0102      0.00000
     96       6.0281      0.00000

 k-point     4 :       0.4000    0.2000    0.0000
  band No.  band energies     occupation 
      1     -10.2528      1.00000
      2      -8.4527      1.00000
      3      -7.8863      1.00000
      4      -7.8430      1.00000
      5      -7.1706      1.00000
      6      -7.0741      1.00000
      7      -7.0278      1.00000
      8      -6.8315      1.00000
      9      -6.7874      1.00000
     10      -6.6167      1.00000
     11      -6.5443      1.00000
     12      -6.4892      1.00000
     13      -6.4208      1.00000
     14      -6.2910      1.00000
     15      -6.2853      1.00000
     16      -6.2305      1.00000
     17      -6.0146      1.00000
     18      -5.9952      1.00000
     19      -5.9402      1.00000
     20      -5.8422      1.00000
     21      -5.7376      1.00000
     22      -5.7124      1.00000
     23      -5.6607      1.00000
     24      -5.6483      1.00000
     25      -5.5619      1.00000
     26      -5.4977      1.00000
     27      -5.4413      1.00000
     28      -5.3955      1.00000
     29      -5.3711      1.00000
     30      -5.3571      1.00000
     31      -5.3382      1.00000
     32      -5.3168      1.00000
     33      -5.2657      1.00000
     34      -5.2086      1.00000
     35      -5.1591      1.00000
     36      -5.1055      1.00000
     37      -5.0633      1.00000
     38      -5.0209      1.00000
     39      -4.9759      1.00000
     40      -4.9565      1.00000
     41      -4.8941      1.00000
     42      -4.8819      1.00000
     43      -4.8576      1.00000
     44      -4.7998      1.00000
     45      -4.7711      1.00000
     46      -4.7258      1.00000
     47      -4.6755      1.00000
     48      -4.6264      1.00000
     49      -4.5955      1.00000
     50      -4.5838      1.00000
     51      -4.4911      1.00000
     52      -4.4616      1.00000
     53      -4.3955      1.00000
     54      -4.3633      1.00000
     55      -4.2935      1.00000
     56      -4.2868      1.00000
     57      -4.2293      1.00000
     58      -4.2189      1.00000
     59      -4.1882      1.00000
     60      -4.1755      1.00000
     61      -4.1647      1.00000
     62      -4.1345      1.00000
     63      -3.8513      1.00000
     64      -3.8436      1.00000
     65      -3.6863      1.00000
     66      -3.2126      1.00000
     67      -3.1264      1.00000
     68      -2.0118      0.00000
     69      -0.8420      0.00000
     70      -0.7885      0.00000
     71      -0.6918      0.00000
     72      -0.1469      0.00000
     73       0.5446      0.00000
     74       0.8408      0.00000
     75       2.4271      0.00000
     76       2.4741      0.00000
     77       2.5303      0.00000
     78       2.9225      0.00000
     79       3.1687      0.00000
     80       3.3124      0.00000
     81       3.5909      0.00000
     82       3.7075      0.00000
     83       4.1476      0.00000
     84       4.4116      0.00000
     85       4.4205      0.00000
     86       4.4750      0.00000
     87       4.6232      0.00000
     88       5.0237      0.00000
     89       5.3077      0.00000
     90       5.6268      0.00000
     91       5.7153      0.00000
     92       5.7631      0.00000
     93       5.9862      0.00000
     94       6.0706      0.00000
     95       6.1542      0.00000
     96       6.2178      0.00000

 k-point     5 :      -0.4000    0.2000    0.0000
  band No.  band energies     occupation 
      1      -9.1577      1.00000
      2      -9.1040      1.00000
      3      -7.9867      1.00000
      4      -7.6571      1.00000
      5      -7.4869      1.00000
      6      -7.0046      1.00000
      7      -6.7048      1.00000
      8      -6.5697      1.00000
      9      -6.5353      1.00000
     10      -6.5212      1.00000
     11      -6.5004      1.00000
     12      -6.2954      1.00000
     13      -6.2618      1.00000
     14      -6.2455      1.00000
     15      -6.2111      1.00000
     16      -6.0819      1.00000
     17      -6.0517      1.00000
     18      -6.0214      1.00000
     19      -5.9903      1.00000
     20      -5.9179      1.00000
     21      -5.8791      1.00000
     22      -5.7802      1.00000
     23      -5.7317      1.00000
     24      -5.6700      1.00000
     25      -5.6361      1.00000
     26      -5.6172      1.00000
     27      -5.5892      1.00000
     28      -5.5604      1.00000
     29      -5.5418      1.00000
     30      -5.4843      1.00000
     31      -5.4236      1.00000
     32      -5.3755      1.00000
     33      -5.3285      1.00000
     34      -5.2881      1.00000
     35      -5.2610      1.00000
     36      -5.2388      1.00000
     37      -5.1883      1.00000
     38      -5.1799      1.00000
     39      -5.1515      1.00000
     40      -5.0769      1.00000
     41      -5.0405      1.00000
     42      -4.9340      1.00000
     43      -4.8588      1.00000
     44      -4.8046      1.00000
     45      -4.7515      1.00000
     46      -4.7278      1.00000
     47      -4.6956      1.00000
     48      -4.6649      1.00000
     49      -4.6456      1.00000
     50      -4.5789      1.00000
     51      -4.5177      1.00000
     52      -4.4781      1.00000
     53      -4.4333      1.00000
     54      -4.4270      1.00000
     55      -4.3768      1.00000
     56      -4.3534      1.00000
     57      -4.3445      1.00000
     58      -4.2551      1.00000
     59      -4.2261      1.00000
     60      -4.2157      1.00000
     61      -4.1949      1.00000
     62      -4.1600      1.00000
     63      -4.1403      1.00000
     64      -4.0858      1.00000
     65      -3.7790      1.00000
     66      -3.4003      1.00000
     67      -2.8858      0.99999
     68      -2.0913      0.00000
     69      -1.2533      0.00000
     70      -0.5150      0.00000
     71      -0.3062      0.00000
     72       0.5837      0.00000
     73       0.8988      0.00000
     74       1.6992      0.00000
     75       2.2235      0.00000
     76       2.3911      0.00000
     77       2.9083      0.00000
     78       3.6095      0.00000
     79       3.6842      0.00000
     80       3.9790      0.00000
     81       4.1179      0.00000
     82       4.2098      0.00000
     83       4.2728      0.00000
     84       4.4084      0.00000
     85       4.4344      0.00000
     86       4.7667      0.00000
     87       4.8057      0.00000
     88       4.8867      0.00000
     89       4.8998      0.00000
     90       4.9217      0.00000
     91       5.5144      0.00000
     92       5.6147      0.00000
     93       5.6678      0.00000
     94       5.7199      0.00000
     95       5.8090      0.00000
     96       5.8988      0.00000


--------------------------------------------------------------------------------------------------------


 soft charge-density along one line, spin component           1
         0         1         2         3         4         5         6         7         8         9
 total charge-density along one line
 
 soft charge-density along one line, spin component           2
         0         1         2         3         4         5         6         7         8         9
 total charge-density along one line
 
 pseudopotential strength for first ion, spin component:           1
-10.106  -0.003  -0.005  -0.005   0.000   0.723   0.002   0.003
 -0.003 -10.074  -0.002   0.005  -0.002   0.002   0.696   0.002
 -0.005  -0.002 -10.067  -0.004  -0.003   0.003   0.002   0.690
 -0.005   0.005  -0.004 -10.068  -0.003   0.004  -0.003   0.003
  0.000  -0.002  -0.003  -0.003 -10.106  -0.000   0.001   0.002
  0.723   0.002   0.003   0.004  -0.000   6.480  -0.002  -0.002
  0.002   0.696   0.002  -0.003   0.001  -0.002   6.499  -0.001
  0.003   0.002   0.690   0.003   0.002  -0.002  -0.001   6.504
  0.004  -0.003   0.003   0.692   0.002  -0.003   0.002  -0.002
 -0.000   0.001   0.002   0.002   0.723   0.000  -0.001  -0.001
 -0.001   0.001  -0.007   0.001  -0.000   0.000  -0.000   0.002
 -0.001   0.001  -0.014   0.002  -0.001   0.001  -0.000   0.004
  0.002  -0.008  -0.001   0.000  -0.001  -0.001   0.009   0.000
  0.000   0.001  -0.007   0.002   0.000  -0.000  -0.001   0.008
  0.001   0.000  -0.001  -0.008   0.002  -0.001  -0.000   0.001
  0.003  -0.009  -0.001   0.000  -0.001  -0.002   0.011   0.001
  0.000   0.002  -0.008   0.003   0.000  -0.000  -0.001   0.010
  0.002   0.000  -0.001  -0.009   0.003  -0.001  -0.000   0.001
 pseudopotential strength for first ion, spin component:           2
-10.106  -0.003  -0.005  -0.005   0.000   0.723   0.002   0.003
 -0.003 -10.074  -0.002   0.005  -0.002   0.002   0.696   0.002
 -0.005  -0.002 -10.067  -0.004  -0.003   0.003   0.002   0.690
 -0.005   0.005  -0.004 -10.068  -0.003   0.004  -0.003   0.003
  0.000  -0.002  -0.003  -0.003 -10.106  -0.000   0.001   0.002
  0.723   0.002   0.003   0.004  -0.000   6.480  -0.002  -0.002
  0.002   0.696   0.002  -0.003   0.001  -0.002   6.499  -0.001
  0.003   0.002   0.690   0.003   0.002  -0.002  -0.001   6.504
  0.004  -0.003   0.003   0.692   0.002  -0.003   0.002  -0.002
 -0.000   0.001   0.002   0.002   0.723   0.000  -0.001  -0.001
 -0.001   0.001  -0.007   0.001  -0.000   0.000  -0.000   0.002
 -0.001   0.001  -0.014   0.002  -0.001   0.001  -0.000   0.004
  0.002  -0.008  -0.001   0.000  -0.001  -0.001   0.009   0.000
  0.000   0.001  -0.007   0.002   0.000  -0.000  -0.001   0.008
  0.001   0.000  -0.001  -0.008   0.002  -0.001  -0.000   0.001
  0.003  -0.009  -0.001   0.000  -0.001  -0.002   0.011   0.001
  0.000   0.002  -0.008   0.003   0.000  -0.000  -0.001   0.010
  0.002   0.000  -0.001  -0.009   0.003  -0.001  -0.000   0.001
 total augmentation occupancy for first ion, spin component:           1
  1.908  -0.001   0.000  -0.005   0.001  -0.017   0.000   0.000   0.004  -0.000  -0.004  -0.001  -0.001   0.002   0.005   0.001
 -0.001   1.923  -0.003   0.002  -0.003   0.000  -0.032   0.001  -0.000   0.004  -0.006  -0.000   0.006   0.002   0.002  -0.008
  0.000  -0.003   1.924  -0.005   0.000   0.000   0.001  -0.028   0.001   0.000   0.003   0.014  -0.001   0.051  -0.001  -0.000
 -0.005   0.002  -0.005   1.925  -0.001   0.004  -0.000   0.001  -0.033   0.000  -0.011  -0.000   0.002   0.003   0.008   0.000
  0.001  -0.003   0.000  -0.001   1.907  -0.000   0.004   0.000   0.000  -0.016  -0.002  -0.001   0.006   0.001  -0.001  -0.001
 -0.017   0.000   0.000   0.004  -0.000   0.014  -0.000   0.000   0.000   0.000   0.000   0.000   0.000  -0.000   0.003  -0.000
  0.000  -0.032   0.001  -0.000   0.004  -0.000   0.010  -0.000   0.000   0.000   0.001   0.000   0.017  -0.000  -0.001  -0.001
  0.000   0.001  -0.028   0.001   0.000   0.000  -0.000   0.013  -0.000   0.000  -0.044   0.002   0.000   0.022   0.001  -0.000
  0.004  -0.000   0.001  -0.033   0.000   0.000   0.000  -0.000   0.010  -0.000   0.003   0.000  -0.001  -0.001   0.017   0.000
 -0.000   0.004   0.000   0.000  -0.016   0.000   0.000   0.000  -0.000   0.014   0.000   0.000   0.003  -0.000   0.000  -0.000
 -0.004  -0.006   0.003  -0.011  -0.002   0.000   0.001  -0.044   0.003   0.000   1.710  -0.134  -0.002   0.127  -0.004   0.000
 -0.001  -0.000   0.014  -0.000  -0.001   0.000   0.000   0.002   0.000   0.000  -0.134   0.017  -0.000  -0.023  -0.001  -0.000
 -0.001   0.006  -0.001   0.002   0.006   0.000   0.017   0.000  -0.001   0.003  -0.002  -0.000   0.208   0.002   0.003  -0.013
  0.002   0.002   0.051   0.003   0.001  -0.000  -0.000   0.022  -0.001  -0.000   0.127  -0.023   0.002   0.124   0.004  -0.000
  0.005   0.002  -0.001   0.008  -0.001   0.003  -0.001   0.001   0.017   0.000  -0.004  -0.001   0.003   0.004   0.212  -0.000
  0.001  -0.008  -0.000   0.000  -0.001  -0.000  -0.001  -0.000   0.000  -0.000   0.000  -0.000  -0.013  -0.000  -0.000   0.001
  0.000   0.001  -0.013   0.001   0.000   0.000  -0.000  -0.001  -0.000   0.000  -0.018   0.002  -0.000  -0.008  -0.000  -0.000
  0.000   0.000  -0.001  -0.008   0.001  -0.000   0.000  -0.000  -0.001  -0.000   0.000  -0.000  -0.000  -0.000  -0.013  -0.000
 total augmentation occupancy for first ion, spin component:           2
 -0.000   0.000  -0.000   0.000   0.000   0.000   0.000  -0.000  -0.000  -0.000   0.000  -0.000   0.000  -0.000   0.000  -0.000
  0.000  -0.000  -0.000   0.000   0.000  -0.000   0.000  -0.000  -0.000   0.000   0.000  -0.000   0.000  -0.000  -0.000  -0.000
 -0.000  -0.000  -0.000  -0.000  -0.000  -0.000  -0.000  -0.000  -0.000  -0.000   0.000  -0.000   0.000   0.000   0.000  -0.000
  0.000   0.000  -0.000   0.000   0.000  -0.000  -0.000  -0.000   0.000  -0.000   0.000  -0.000  -0.000  -0.000  -0.000   0.000
  0.000   0.000  -0.000   0.000  -0.000  -0.000  -0.000  -0.000   0.000   0.000   0.000  -0.000  -0.000  -0.000   0.000   0.000
  0.000  -0.000  -0.000  -0.000  -0.000  -0.000  -0.000   0.000  -0.000   0.000  -0.000   0.000  -0.000   0.000   0.000   0.000
  0.000   0.000  -0.000  -0.000  -0.000  -0.000  -0.000   0.000   0.000   0.000  -0.000   0.000   0.000   0.000   0.000  -0.000
 -0.000  -0.000  -0.000  -0.000  -0.000   0.000   0.000  -0.000   0.000   0.000  -0.000   0.000   0.000  -0.000   0.000   0.000
 -0.000  -0.000  -0.000   0.000   0.000  -0.000   0.000   0.000  -0.000  -0.000  -0.000   0.000   0.000   0.000   0.000  -0.000
 -0.000   0.000  -0.000  -0.000   0.000   0.000   0.000   0.000  -0.000  -0.000  -0.000   0.000   0.000   0.000  -0.000  -0.000
  0.000   0.000   0.000   0.000   0.000  -0.000  -0.000  -0.000  -0.000  -0.000  -0.000  -0.000  -0.000   0.000  -0.000   0.000
 -0.000  -0.000  -0.000  -0.000  -0.000   0.000   0.000   0.000   0.000   0.000  -0.000  -0.000   0.000  -0.000   0.000   0.000
  0.000   0.000   0.000  -0.000  -0.000  -0.000   0.000   0.000   0.000   0.000  -0.000   0.000  -0.000   0.000   0.000  -0.000
 -0.000  -0.000   0.000  -0.000  -0.000   0.000   0.000  -0.000   0.000   0.000   0.000  -0.000   0.000  -0.000   0.000  -0.000
  0.000  -0.000   0.000  -0.000   0.000   0.000   0.000   0.000   0.000  -0.000  -0.000   0.000   0.000   0.000   0.000  -0.000
 -0.000  -0.000  -0.000   0.000   0.000   0.000  -0.000   0.000  -0.000  -0.000   0.000   0.000  -0.000  -0.000  -0.000   0.000
  0.000   0.000  -0.000   0.000   0.000  -0.000  -0.000   0.000  -0.000  -0.000  -0.000  -0.000  -0.000   0.000  -0.000   0.000
 -0.000   0.000  -0.000   0.000  -0.000   0.000  -0.000   0.000  -0.000   0.000   0.000   0.000  -0.000  -0.000  -0.000   0.000


------------------------ aborting loop because EDIFF is reached ----------------------------------------


    CHARGE:  cpu time      0.1135: real time      0.1144
    FORLOC:  cpu time      0.0018: real time      0.0018
    FORNL :  cpu time      0.2324: real time      0.2345
    STRESS:  cpu time      1.5533: real time      1.5672
    FORCOR:  cpu time      0.0411: real time      0.0413
    FORHAR:  cpu time      0.0044: real time      0.0044
    MIXING:  cpu time      0.0011: real time      0.0011
    OFIELD:  cpu time      0.0000: real time      0.0000

 ---------------------------------------------------------------------------------------------

         DFTD3 V3.0 Rev 1        
 Edisp (eV)   -4.65966

 E6    (eV) :    -2.5742
 E8    (eV) :    -2.0854
 % E8        : 44.76
    FORVDW:  cpu time      0.0102: real time      0.0103

  FORCE on cell =-STRESS in cart. coord.  units (eV):
  Direction    XX          YY          ZZ          XY          YZ          ZX
  --------------------------------------------------------------------------------------
  Alpha Z   137.59429   137.59429   137.59429
  Ewald  132481.13560132481.13560************    -0.00000    -0.00000    -0.00000
  Hartree136371.08930136371.08930************     0.00000    -0.00000    -0.00000
  E(xc)    -772.68890  -772.68876  -774.48241    -0.00012     0.00000     0.00000
  Local  ************************273513.12196     0.00203    -0.00000    -0.00000
  n-local  -254.72169  -268.01987  -266.33474    -7.85617    -0.06122     0.00523
  augment  1134.33983  1134.34191  1139.50614    -0.00180     0.00002     0.00003
  Kinetic  1079.54974  1080.44809  1088.57929     0.61383    -0.86868     1.04777
  Fock        0.00000     0.00000     0.00000     0.00000     0.00000     0.00000
  vdW        -4.92466    -4.92466    -2.44320     0.00000    -0.00000    -0.00000
  -------------------------------------------------------------------------------------
  Total      -7.77340    -7.77340    -3.59866     0.00000    -0.00000     0.00000
  in kB     -16.10072   -16.10072    -7.45377     0.00000    -0.00000     0.00000
  external pressure =      -13.22 kB  Pullay stress =        0.00 kB


 VOLUME and BASIS-vectors are now :
 -----------------------------------------------------------------------------
  energy-cutoff  :      600.00
  volume of cell :      773.53
      direct lattice vectors                 reciprocal lattice vectors
     5.112382028  0.000000000  0.000000000     0.195603536 -0.112931754  0.000000000
     2.556191014  4.427452710  0.000000000     0.000000000  0.225863508  0.000000000
     0.000000000  0.000000000 34.174242446     0.000000000  0.000000000  0.029261804

  length of vectors
     5.112382028  5.112382028 34.174242446     0.225863508  0.225863508  0.029261804


 FORCES acting on ions
    electron-ion (+dipol)            ewald-force                    non-local-force                 convergence-correction
 -----------------------------------------------------------------------------------------------
   -.388E+00 -.224E+00 0.318E+04   0.387E-01 0.224E-01 -.317E+04   0.274E+00 0.158E+00 -.169E+01   0.195E-01 0.113E-01 -.199E+00
   0.388E+00 -.224E+00 0.318E+04   -.387E-01 0.224E-01 -.317E+04   -.274E+00 0.158E+00 -.169E+01   -.195E-01 0.113E-01 -.199E+00
   0.273E-05 0.448E+00 0.318E+04   -.417E-08 -.447E-01 -.317E+04   0.140E-16 -.316E+00 -.169E+01   -.128E-07 -.225E-01 -.199E+00
   0.256E-05 0.147E-05 0.318E+04   0.502E-08 0.461E-08 -.317E+04   -.532E-17 0.409E-17 -.348E+01   0.163E-08 0.942E-09 -.211E+00
   -.256E-05 -.173E+01 0.358E+02   -.579E-08 0.865E+00 -.348E+02   0.150E-17 0.849E+00 -.733E+00   0.987E-07 -.139E-02 -.224E+00
   -.229E-05 -.132E-05 0.343E+02   0.456E-08 -.819E-08 -.339E+02   0.188E-17 -.109E-17 -.689E-01   -.409E-09 -.237E-09 -.266E+00
   0.150E+01 0.864E+00 0.358E+02   -.749E+00 -.432E+00 -.348E+02   -.735E+00 -.424E+00 -.733E+00   0.121E-02 0.696E-03 -.224E+00
   -.150E+01 0.864E+00 0.358E+02   0.749E+00 -.432E+00 -.348E+02   0.735E+00 -.424E+00 -.733E+00   -.121E-02 0.697E-03 -.224E+00
   -.749E-06 -.433E-06 -.306E+04   -.618E-08 -.249E-08 0.307E+04   0.185E-17 -.214E-17 -.569E+01   -.179E-07 -.103E-07 -.519E+00
   -.423E-06 -.313E-01 -.312E+04   0.516E-08 -.823E-08 0.311E+04   -.310E-17 0.299E-01 0.362E+01   -.324E-08 0.681E-02 -.627E-01
   -.271E-01 0.156E-01 -.312E+04   -.491E-08 0.812E-08 0.311E+04   0.259E-01 -.149E-01 0.362E+01   0.590E-02 -.341E-02 -.627E-01
   0.271E-01 0.156E-01 -.312E+04   0.611E-08 0.220E-08 0.311E+04   -.259E-01 -.149E-01 0.362E+01   -.590E-02 -.341E-02 -.627E-01
   -.142E-06 -.820E-07 -.427E+03   -.187E-09 -.105E-09 0.428E+03   -.847E-19 0.626E-19 -.180E+01   -.165E-09 -.953E-10 0.657E-02
 -----------------------------------------------------------------------------------------------
   -.409E-06 -.232E-06 0.990E+01   0.994E-13 -.356E-13 -.796E-12   0.111E-15 0.626E-19 -.746E+01   0.756E-08 0.437E-08 -.245E+01
 
 
 POSITION                                       TOTAL-FORCE (eV/Angst)
 -----------------------------------------------------------------------------------
      1.27810      0.73791     15.00000        -0.055420     -0.031997      0.156191
      3.83429      0.73791     15.00000         0.055420     -0.031997      0.156191
      2.55619      2.95164     15.00000        -0.000000      0.063994      0.156191
      5.11238      2.95164     15.00000        -0.000000      0.000000      0.164413
      5.11238      1.47582     17.08712         0.000000     -0.016344     -0.007782
      2.55619      1.47582     17.08712         0.000000      0.000000      0.076774
      6.39048      3.68954     17.08712         0.014154      0.008172     -0.007782
      3.83429      3.68954     17.08712        -0.014154      0.008172     -0.007782
      0.00000      0.00000     19.17424         0.000000      0.000000      0.200849
      2.55619      0.00000     19.17424         0.000000      0.005421     -0.133126
      1.27810      2.21373     19.17424         0.004695     -0.002711     -0.133126
      3.83429      2.21373     19.17424        -0.004695     -0.002711     -0.133126
      0.00000      0.00000     20.73101        -0.000000      0.000000     -0.487884
 -----------------------------------------------------------------------------------
    total drift:                               -0.000000     -0.000000     -0.002321


--------------------------------------------------------------------------------------------------------



  FREE ENERGIE OF THE ION-ELECTRON SYSTEM (eV)
  ---------------------------------------------------
  free  energy   TOTEN  =       -48.56932152 eV

  energy  without entropy=      -48.53070167  energy(sigma->0) =      -48.55001160
 
 d Force = 0.5479768E+00[-0.133E+00, 0.123E+01]  d Energy = 0.4125239E+00 0.135E+00
 d Force = 0.1198990E+03[ 0.116E+03, 0.123E+03]  d Ewald  = 0.1195768E+03 0.322E+00


--------------------------------------------------------------------------------------------------------


    POTLOK:  cpu time      0.0511: real time      0.0515


--------------------------------------------------------------------------------------------------------




--------------------------------------------------------------------------------------------------------


    WAVPRE:  cpu time      0.0044: real time      0.0216
    FEWALD:  cpu time      0.0003: real time      0.0003
    ORTHCH:  cpu time      0.2096: real time      0.2121
     LOOP+:  cpu time     22.3933: real time     22.6506


--------------------------------------- Iteration      8(   1)  ---------------------------------------


    POTLOK:  cpu time      0.0438: real time      0.0445
    SETDIJ:  cpu time      0.0039: real time      0.0039
     EDDAV:  cpu time      2.1871: real time      2.2081
       DOS:  cpu time      0.0010: real time      0.0010
    CHARGE:  cpu time      0.1069: real time      0.1078
    MIXING:  cpu time      0.0008: real time      0.0008
    --------------------------------------------
      LOOP:  cpu time      2.3434: real time      2.3661

 eigenvalue-minimisations  :  1920
 total energy-change (2. order) :-0.9693671E-02  (-0.9999503E-01)
 number of electron     133.0000045 magnetization      -0.0000918
 augmentation part       84.2736255 magnetization      -0.0000375

 Broyden mixing:
  rms(total) = 0.26783E-01    rms(broyden)= 0.26778E-01
  rms(prec ) = 0.27373E-01
  weight for this iteration     100.00

 Free energy of the ion-electron system (eV)
  ---------------------------------------------------
  alpha Z        PSCENC =       137.59429322
  Ewald energy   TEWEN  =    123750.83819133
  -Hartree energ DENC   =   -139161.90936017
  -exchange      EXHF   =         0.00000000
  -V(xc)+E(xc)   XCENC  =       536.27119595
  PAW double counting   =     15634.14038478   -16925.91128164
  entropy T*S    EENTRO =        -0.03770610
  eigenvalues    EBANDS =      -719.12258595
  atomic energy  EATOM  =     16704.21750749
  Solvation  Ecorr_sol  =         0.00000000
  ---------------------------------------------------
  free energy    TOTEN  =       -43.91936111 eV

  energy without entropy =      -43.88165500  energy(sigma->0) =      -43.90050805


--------------------------------------------------------------------------------------------------------




--------------------------------------- Iteration      8(   2)  ---------------------------------------


    POTLOK:  cpu time      0.0451: real time      0.0456
    SETDIJ:  cpu time      0.0037: real time      0.0037
     EDDAV:  cpu time      2.9382: real time      2.9672
       DOS:  cpu time      0.0012: real time      0.0012
    CHARGE:  cpu time      0.1105: real time      0.1114
    MIXING:  cpu time      0.0010: real time      0.0010
    --------------------------------------------
      LOOP:  cpu time      3.0998: real time      3.1302

 eigenvalue-minimisations  :  2624
 total energy-change (2. order) :-0.3488691E-03  (-0.1274660E-02)
 number of electron     133.0000045 magnetization      -0.0000904
 augmentation part       84.2717010 magnetization      -0.0000424

 Broyden mixing:
  rms(total) = 0.16057E-01    rms(broyden)= 0.16056E-01
  rms(prec ) = 0.16622E-01
  weight for this iteration     100.00

 eigenvalues of (default mixing * dielectric matrix)
  average eigenvalue GAMMA=   0.9096
  0.9096

 Free energy of the ion-electron system (eV)
  ---------------------------------------------------
  alpha Z        PSCENC =       137.59429322
  Ewald energy   TEWEN  =    123750.83819133
  -Hartree energ DENC   =   -139162.83281429
  -exchange      EXHF   =         0.00000000
  -V(xc)+E(xc)   XCENC  =       536.27062283
  PAW double counting   =     15639.18584936   -16931.03897405
  entropy T*S    EENTRO =        -0.03780359
  eigenvalues    EBANDS =      -718.11658227
  atomic energy  EATOM  =     16704.21750749
  Solvation  Ecorr_sol  =         0.00000000
  ---------------------------------------------------
  free energy    TOTEN  =       -43.91970997 eV

  energy without entropy =      -43.88190638  energy(sigma->0) =      -43.90080818


--------------------------------------------------------------------------------------------------------




--------------------------------------- Iteration      8(   3)  ---------------------------------------


    POTLOK:  cpu time      0.0463: real time      0.0467
    SETDIJ:  cpu time      0.0033: real time      0.0033
     EDDAV:  cpu time      2.6145: real time      2.6395
       DOS:  cpu time      0.0004: real time      0.0004
    CHARGE:  cpu time      0.1214: real time      0.1219
    MIXING:  cpu time      0.0009: real time      0.0009
    --------------------------------------------
      LOOP:  cpu time      2.7868: real time      2.8128

 eigenvalue-minimisations  :  2304
 total energy-change (2. order) :-0.2639445E-04  (-0.4616535E-03)
 number of electron     133.0000045 magnetization      -0.0000880
 augmentation part       84.2715129 magnetization      -0.0000391

 Broyden mixing:
  rms(total) = 0.19236E-01    rms(broyden)= 0.19235E-01
  rms(prec ) = 0.20066E-01
  weight for this iteration     100.00

 eigenvalues of (default mixing * dielectric matrix)
  average eigenvalue GAMMA=   1.2864
  2.1877  0.3851

 Free energy of the ion-electron system (eV)
  ---------------------------------------------------
  alpha Z        PSCENC =       137.59429322
  Ewald energy   TEWEN  =    123750.83819133
  -Hartree energ DENC   =   -139163.18473591
  -exchange      EXHF   =         0.00000000
  -V(xc)+E(xc)   XCENC  =       536.26739764
  PAW double counting   =     15641.30261240   -16933.18004122
  entropy T*S    EENTRO =        -0.03800237
  eigenvalues    EBANDS =      -717.73695895
  atomic energy  EATOM  =     16704.21750749
  Solvation  Ecorr_sol  =         0.00000000
  ---------------------------------------------------
  free energy    TOTEN  =       -43.91973637 eV

  energy without entropy =      -43.88173400  energy(sigma->0) =      -43.90073518


--------------------------------------------------------------------------------------------------------




--------------------------------------- Iteration      8(   4)  ---------------------------------------


    POTLOK:  cpu time      0.0457: real time      0.0465
    SETDIJ:  cpu time      0.0044: real time      0.0044
     EDDAV:  cpu time      2.6161: real time      2.6409
       DOS:  cpu time      0.0013: real time      0.0013
    CHARGE:  cpu time      0.1180: real time      0.1188
    MIXING:  cpu time      0.0010: real time      0.0010
    --------------------------------------------
      LOOP:  cpu time      2.7864: real time      2.8129

 eigenvalue-minimisations  :  2304
 total energy-change (2. order) : 0.3860752E-03  (-0.2967642E-03)
 number of electron     133.0000045 magnetization      -0.0000870
 augmentation part       84.2740493 magnetization      -0.0000431

 Broyden mixing:
  rms(total) = 0.52640E-02    rms(broyden)= 0.52626E-02
  rms(prec ) = 0.61482E-02
  weight for this iteration     100.00

 eigenvalues of (default mixing * dielectric matrix)
  average eigenvalue GAMMA=   1.0348
  2.2551  0.4779  0.3715

 Free energy of the ion-electron system (eV)
  ---------------------------------------------------
  alpha Z        PSCENC =       137.59429322
  Ewald energy   TEWEN  =    123750.83819133
  -Hartree energ DENC   =   -139163.97975528
  -exchange      EXHF   =         0.00000000
  -V(xc)+E(xc)   XCENC  =       536.26246558
  PAW double counting   =     15644.38808767   -16936.29770686
  entropy T*S    EENTRO =        -0.03765593
  eigenvalues    EBANDS =      -716.90477751
  atomic energy  EATOM  =     16704.21750749
  Solvation  Ecorr_sol  =         0.00000000
  ---------------------------------------------------
  free energy    TOTEN  =       -43.91935029 eV

  energy without entropy =      -43.88169436  energy(sigma->0) =      -43.90052233


--------------------------------------------------------------------------------------------------------




--------------------------------------- Iteration      8(   5)  ---------------------------------------


    POTLOK:  cpu time      0.0439: real time      0.0444
    SETDIJ:  cpu time      0.0031: real time      0.0031
     EDDAV:  cpu time      2.1251: real time      2.1460
       DOS:  cpu time      0.0003: real time      0.0003
    --------------------------------------------
      LOOP:  cpu time      2.1725: real time      2.1938

 eigenvalue-minimisations  :  1792
 total energy-change (2. order) : 0.6203911E-04  (-0.7085389E-04)
 number of electron     133.0000045 magnetization      -0.0000870
 augmentation part       84.2740493 magnetization      -0.0000431

 Free energy of the ion-electron system (eV)
  ---------------------------------------------------
  alpha Z        PSCENC =       137.59429322
  Ewald energy   TEWEN  =    123750.83819133
  -Hartree energ DENC   =   -139164.20497442
  -exchange      EXHF   =         0.00000000
  -V(xc)+E(xc)   XCENC  =       536.26391789
  PAW double counting   =     15644.70788576   -16936.63369895
  entropy T*S    EENTRO =        -0.03795933
  eigenvalues    EBANDS =      -716.66445125
  atomic energy  EATOM  =     16704.21750749
  Solvation  Ecorr_sol  =         0.00000000
  ---------------------------------------------------
  free energy    TOTEN  =       -43.91928826 eV

  energy without entropy =      -43.88132892  energy(sigma->0) =      -43.90030859


--------------------------------------------------------------------------------------------------------




 average (electrostatic) potential at core
  the test charge radii are     0.9430  0.5201
  (the norm of the test charge is              1.0000)
       1 -73.5777       2 -73.5777       3 -73.5777       4 -73.6138       5 -73.8345
       6 -73.8201       7 -73.8345       8 -73.8345       9 -74.0990      10 -73.5075
      11 -73.5075      12 -73.5075      13 -38.8159
 
 
 
 E-fermi :  -2.5615     XC(G=0):  -2.9706     alpha+bet : -2.4952

 Fermi energy:        -2.5615259278

 spin component 1

 k-point     1 :       0.0000    0.0000    0.0000
  band No.  band energies     occupation 
      1     -11.1672      1.00000
      2      -9.2845      1.00000
      3      -7.7600      1.00000
      4      -7.3922      1.00000
      5      -7.2646      1.00000
      6      -7.2646      1.00000
      7      -7.1243      1.00000
      8      -7.0665      1.00000
      9      -7.0665      1.00000
     10      -6.8216      1.00000
     11      -6.6949      1.00000
     12      -6.6949      1.00000
     13      -6.6499      1.00000
     14      -6.6499      1.00000
     15      -6.6414      1.00000
     16      -6.5104      1.00000
     17      -6.0659      1.00000
     18      -6.0659      1.00000
     19      -5.9161      1.00000
     20      -5.6404      1.00000
     21      -5.6404      1.00000
     22      -5.5956      1.00000
     23      -5.5459      1.00000
     24      -5.5017      1.00000
     25      -5.5017      1.00000
     26      -5.3353      1.00000
     27      -5.3353      1.00000
     28      -5.3131      1.00000
     29      -5.3014      1.00000
     30      -5.3014      1.00000
     31      -5.2686      1.00000
     32      -5.2021      1.00000
     33      -5.2021      1.00000
     34      -5.0450      1.00000
     35      -5.0450      1.00000
     36      -4.8487      1.00000
     37      -4.8021      1.00000
     38      -4.8021      1.00000
     39      -4.6558      1.00000
     40      -4.6558      1.00000
     41      -4.6175      1.00000
     42      -4.6175      1.00000
     43      -4.6175      1.00000
     44      -4.5683      1.00000
     45      -4.3806      1.00000
     46      -4.3806      1.00000
     47      -4.2536      1.00000
     48      -4.2536      1.00000
     49      -4.2037      1.00000
     50      -4.1963      1.00000
     51      -4.1591      1.00000
     52      -4.1591      1.00000
     53      -4.1475      1.00000
     54      -4.1475      1.00000
     55      -4.1206      1.00000
     56      -4.1206      1.00000
     57      -4.1165      1.00000
     58      -3.9877      1.00000
     59      -3.9877      1.00000
     60      -3.9120      1.00000
     61      -3.9120      1.00000
     62      -3.9052      1.00000
     63      -3.8456      1.00000
     64      -3.1890      1.00000
     65      -2.5042      0.10673
     66      -2.5042      0.10671
     67      -2.5039      0.10569
     68      -1.4005      0.00000
     69      -1.4005      0.00000
     70      -1.3707      0.00000
     71      -0.9856      0.00000
     72      -0.9669      0.00000
     73      -0.9669      0.00000
     74      -0.4879      0.00000
     75       1.6767      0.00000
     76       1.9482      0.00000
     77       1.9482      0.00000
     78       2.0182      0.00000
     79       2.1494      0.00000
     80       2.2900      0.00000
     81       2.6825      0.00000
     82       2.8593      0.00000
     83       3.1249      0.00000
     84       3.1249      0.00000
     85       3.5122      0.00000
     86       3.5808      0.00000
     87       3.7958      0.00000
     88       3.9017      0.00000
     89       3.9017      0.00000
     90       4.8099      0.00000
     91       4.8934      0.00000
     92       5.8289      0.00000
     93       6.3414      0.00000
     94       6.3552      0.00000
     95       6.3552      0.00000
     96       6.4411      0.00000

 k-point     2 :       0.2000    0.0000    0.0000
  band No.  band energies     occupation 
      1     -10.8515      1.00000
      2      -8.9933      1.00000
      3      -7.6132      1.00000
      4      -7.5078      1.00000
      5      -7.2943      1.00000
      6      -7.1896      1.00000
      7      -7.1001      1.00000
      8      -7.0197      1.00000
      9      -6.9601      1.00000
     10      -6.7775      1.00000
     11      -6.6511      1.00000
     12      -6.6201      1.00000
     13      -6.5683      1.00000
     14      -6.4930      1.00000
     15      -6.4844      1.00000
     16      -6.4087      1.00000
     17      -6.0544      1.00000
     18      -6.0286      1.00000
     19      -5.9088      1.00000
     20      -5.6475      1.00000
     21      -5.5881      1.00000
     22      -5.5879      1.00000
     23      -5.5667      1.00000
     24      -5.5381      1.00000
     25      -5.5111      1.00000
     26      -5.4332      1.00000
     27      -5.4034      1.00000
     28      -5.3948      1.00000
     29      -5.2827      1.00000
     30      -5.2780      1.00000
     31      -5.2381      1.00000
     32      -5.2313      1.00000
     33      -5.1823      1.00000
     34      -5.1447      1.00000
     35      -5.1102      1.00000
     36      -5.0970      1.00000
     37      -4.9076      1.00000
     38      -4.8662      1.00000
     39      -4.7751      1.00000
     40      -4.7181      1.00000
     41      -4.7106      1.00000
     42      -4.6616      1.00000
     43      -4.6531      1.00000
     44      -4.5982      1.00000
     45      -4.5717      1.00000
     46      -4.4594      1.00000
     47      -4.4437      1.00000
     48      -4.3885      1.00000
     49      -4.3753      1.00000
     50      -4.3075      1.00000
     51      -4.2996      1.00000
     52      -4.2903      1.00000
     53      -4.2599      1.00000
     54      -4.2445      1.00000
     55      -4.2249      1.00000
     56      -4.1911      1.00000
     57      -4.1413      1.00000
     58      -4.1180      1.00000
     59      -4.0723      1.00000
     60      -4.0674      1.00000
     61      -4.0306      1.00000
     62      -3.9992      1.00000
     63      -3.9507      1.00000
     64      -3.8390      1.00000
     65      -2.9922      1.00000
     66      -2.5976      0.79174
     67      -2.5515      0.40834
     68      -2.4997      0.09197
     69      -1.5288      0.00000
     70      -1.4823      0.00000
     71      -0.7299      0.00000
     72      -0.0446      0.00000
     73       0.0314      0.00000
     74       0.5738      0.00000
     75       1.9774      0.00000
     76       2.3056      0.00000
     77       2.3294      0.00000
     78       2.4327      0.00000
     79       2.5918      0.00000
     80       2.7174      0.00000
     81       2.9892      0.00000
     82       3.1474      0.00000
     83       3.1525      0.00000
     84       3.3137      0.00000
     85       3.8339      0.00000
     86       3.9419      0.00000
     87       4.1438      0.00000
     88       4.4759      0.00000
     89       4.6275      0.00000
     90       5.1263      0.00000
     91       5.1912      0.00000
     92       5.9809      0.00000
     93       6.0294      0.00000
     94       6.2463      0.00000
     95       6.5770      0.00000
     96       6.6578      0.00000

 k-point     3 :       0.4000    0.0000    0.0000
  band No.  band energies     occupation 
      1      -9.9482      1.00000
      2      -8.6632      1.00000
      3      -8.2047      1.00000
      4      -7.4135      1.00000
      5      -7.1023      1.00000
      6      -7.0211      1.00000
      7      -6.9271      1.00000
      8      -6.8751      1.00000
      9      -6.7366      1.00000
     10      -6.6386      1.00000
     11      -6.5667      1.00000
     12      -6.4139      1.00000
     13      -6.3591      1.00000
     14      -6.2322      1.00000
     15      -6.2191      1.00000
     16      -6.1423      1.00000
     17      -5.9743      1.00000
     18      -5.9509      1.00000
     19      -5.9058      1.00000
     20      -5.8878      1.00000
     21      -5.8137      1.00000
     22      -5.8080      1.00000
     23      -5.7168      1.00000
     24      -5.5922      1.00000
     25      -5.5716      1.00000
     26      -5.4575      1.00000
     27      -5.4408      1.00000
     28      -5.4321      1.00000
     29      -5.3894      1.00000
     30      -5.3357      1.00000
     31      -5.2982      1.00000
     32      -5.2580      1.00000
     33      -5.2093      1.00000
     34      -5.1993      1.00000
     35      -5.1589      1.00000
     36      -5.1408      1.00000
     37      -5.1377      1.00000
     38      -5.0749      1.00000
     39      -5.0633      1.00000
     40      -5.0420      1.00000
     41      -5.0396      1.00000
     42      -4.9801      1.00000
     43      -4.8038      1.00000
     44      -4.7926      1.00000
     45      -4.7681      1.00000
     46      -4.7465      1.00000
     47      -4.7159      1.00000
     48      -4.6670      1.00000
     49      -4.6002      1.00000
     50      -4.5661      1.00000
     51      -4.5421      1.00000
     52      -4.5189      1.00000
     53      -4.4213      1.00000
     54      -4.3937      1.00000
     55      -4.3935      1.00000
     56      -4.3782      1.00000
     57      -4.3445      1.00000
     58      -4.2639      1.00000
     59      -4.1794      1.00000
     60      -4.1389      1.00000
     61      -4.1222      1.00000
     62      -4.1136      1.00000
     63      -4.0542      1.00000
     64      -4.0436      1.00000
     65      -3.3234      1.00000
     66      -2.5850      0.70445
     67      -2.5468      0.36687
     68      -2.2024      0.00000
     69      -1.4969      0.00000
     70      -1.4128      0.00000
     71      -1.0106      0.00000
     72       0.2441      0.00000
     73       0.9510      0.00000
     74       1.1284      0.00000
     75       2.2801      0.00000
     76       2.9646      0.00000
     77       3.2637      0.00000
     78       3.3255      0.00000
     79       3.4429      0.00000
     80       3.5187      0.00000
     81       3.9172      0.00000
     82       4.0478      0.00000
     83       4.1228      0.00000
     84       4.2997      0.00000
     85       4.7537      0.00000
     86       4.8199      0.00000
     87       4.8690      0.00000
     88       5.0177      0.00000
     89       5.0501      0.00000
     90       5.2196      0.00000
     91       5.4088      0.00000
     92       5.5052      0.00000
     93       5.8694      0.00000
     94       6.0075      0.00000
     95       6.0400      0.00000
     96       6.0516      0.00000

 k-point     4 :       0.4000    0.2000    0.0000
  band No.  band energies     occupation 
      1     -10.2399      1.00000
      2      -8.4621      1.00000
      3      -7.8852      1.00000
      4      -7.8256      1.00000
      5      -7.2115      1.00000
      6      -7.0678      1.00000
      7      -7.0124      1.00000
      8      -6.8477      1.00000
      9      -6.7836      1.00000
     10      -6.6177      1.00000
     11      -6.5249      1.00000
     12      -6.4842      1.00000
     13      -6.4195      1.00000
     14      -6.2845      1.00000
     15      -6.2751      1.00000
     16      -6.2244      1.00000
     17      -6.0113      1.00000
     18      -5.9927      1.00000
     19      -5.9231      1.00000
     20      -5.8235      1.00000
     21      -5.7250      1.00000
     22      -5.6952      1.00000
     23      -5.6492      1.00000
     24      -5.6365      1.00000
     25      -5.5514      1.00000
     26      -5.4878      1.00000
     27      -5.4353      1.00000
     28      -5.3910      1.00000
     29      -5.3541      1.00000
     30      -5.3487      1.00000
     31      -5.3217      1.00000
     32      -5.3061      1.00000
     33      -5.2520      1.00000
     34      -5.1865      1.00000
     35      -5.1495      1.00000
     36      -5.0951      1.00000
     37      -5.0522      1.00000
     38      -5.0085      1.00000
     39      -4.9615      1.00000
     40      -4.9430      1.00000
     41      -4.8818      1.00000
     42      -4.8672      1.00000
     43      -4.8442      1.00000
     44      -4.7872      1.00000
     45      -4.7558      1.00000
     46      -4.7177      1.00000
     47      -4.6588      1.00000
     48      -4.6097      1.00000
     49      -4.5777      1.00000
     50      -4.5658      1.00000
     51      -4.4734      1.00000
     52      -4.4493      1.00000
     53      -4.3796      1.00000
     54      -4.3457      1.00000
     55      -4.2794      1.00000
     56      -4.2702      1.00000
     57      -4.2136      1.00000
     58      -4.2029      1.00000
     59      -4.1720      1.00000
     60      -4.1574      1.00000
     61      -4.1456      1.00000
     62      -4.1162      1.00000
     63      -3.8359      1.00000
     64      -3.8277      1.00000
     65      -3.6661      1.00000
     66      -3.1995      1.00000
     67      -3.1117      1.00000
     68      -1.9739      0.00000
     69      -0.8332      0.00000
     70      -0.7718      0.00000
     71      -0.6787      0.00000
     72      -0.1325      0.00000
     73       0.5591      0.00000
     74       0.9157      0.00000
     75       2.4383      0.00000
     76       2.4808      0.00000
     77       2.5418      0.00000
     78       2.9536      0.00000
     79       3.1896      0.00000
     80       3.3315      0.00000
     81       3.6114      0.00000
     82       3.7568      0.00000
     83       4.1704      0.00000
     84       4.4278      0.00000
     85       4.4703      0.00000
     86       4.4876      0.00000
     87       4.6385      0.00000
     88       5.0561      0.00000
     89       5.3138      0.00000
     90       5.6459      0.00000
     91       5.7425      0.00000
     92       5.7850      0.00000
     93       6.0130      0.00000
     94       6.1042      0.00000
     95       6.1856      0.00000
     96       6.2428      0.00000

 k-point     5 :      -0.4000    0.2000    0.0000
  band No.  band energies     occupation 
      1      -9.1549      1.00000
      2      -9.0857      1.00000
      3      -7.9912      1.00000
      4      -7.6776      1.00000
      5      -7.4713      1.00000
      6      -7.0297      1.00000
      7      -6.7603      1.00000
      8      -6.5547      1.00000
      9      -6.5188      1.00000
     10      -6.5078      1.00000
     11      -6.4931      1.00000
     12      -6.2752      1.00000
     13      -6.2488      1.00000
     14      -6.2291      1.00000
     15      -6.1973      1.00000
     16      -6.0688      1.00000
     17      -6.0311      1.00000
     18      -6.0035      1.00000
     19      -5.9795      1.00000
     20      -5.9128      1.00000
     21      -5.8733      1.00000
     22      -5.7875      1.00000
     23      -5.7258      1.00000
     24      -5.6643      1.00000
     25      -5.6283      1.00000
     26      -5.6083      1.00000
     27      -5.5789      1.00000
     28      -5.5517      1.00000
     29      -5.5306      1.00000
     30      -5.4743      1.00000
     31      -5.4153      1.00000
     32      -5.3648      1.00000
     33      -5.3190      1.00000
     34      -5.2788      1.00000
     35      -5.2489      1.00000
     36      -5.2267      1.00000
     37      -5.1714      1.00000
     38      -5.1624      1.00000
     39      -5.1349      1.00000
     40      -5.0610      1.00000
     41      -5.0236      1.00000
     42      -4.9169      1.00000
     43      -4.8397      1.00000
     44      -4.7902      1.00000
     45      -4.7374      1.00000
     46      -4.7093      1.00000
     47      -4.6798      1.00000
     48      -4.6472      1.00000
     49      -4.6336      1.00000
     50      -4.5653      1.00000
     51      -4.5016      1.00000
     52      -4.4666      1.00000
     53      -4.4195      1.00000
     54      -4.4119      1.00000
     55      -4.3615      1.00000
     56      -4.3353      1.00000
     57      -4.3292      1.00000
     58      -4.2409      1.00000
     59      -4.2090      1.00000
     60      -4.1987      1.00000
     61      -4.1783      1.00000
     62      -4.1411      1.00000
     63      -4.1209      1.00000
     64      -4.0699      1.00000
     65      -3.7632      1.00000
     66      -3.3823      1.00000
     67      -2.8601      0.99998
     68      -2.0796      0.00000
     69      -1.2258      0.00000
     70      -0.4980      0.00000
     71      -0.2632      0.00000
     72       0.5948      0.00000
     73       0.9094      0.00000
     74       1.7399      0.00000
     75       2.2388      0.00000
     76       2.4077      0.00000
     77       2.9695      0.00000
     78       3.6144      0.00000
     79       3.6857      0.00000
     80       3.9828      0.00000
     81       4.1504      0.00000
     82       4.2414      0.00000
     83       4.2964      0.00000
     84       4.4232      0.00000
     85       4.4404      0.00000
     86       4.8014      0.00000
     87       4.8499      0.00000
     88       4.9265      0.00000
     89       4.9339      0.00000
     90       4.9370      0.00000
     91       5.5348      0.00000
     92       5.6598      0.00000
     93       5.7195      0.00000
     94       5.7536      0.00000
     95       5.8198      0.00000
     96       5.9149      0.00000
 Fermi energy:        -2.5615259278

 spin component 2

 k-point     1 :       0.0000    0.0000    0.0000
  band No.  band energies     occupation 
      1     -11.1672      1.00000
      2      -9.2845      1.00000
      3      -7.7600      1.00000
      4      -7.3922      1.00000
      5      -7.2646      1.00000
      6      -7.2646      1.00000
      7      -7.1243      1.00000
      8      -7.0665      1.00000
      9      -7.0665      1.00000
     10      -6.8216      1.00000
     11      -6.6949      1.00000
     12      -6.6949      1.00000
     13      -6.6499      1.00000
     14      -6.6499      1.00000
     15      -6.6414      1.00000
     16      -6.5104      1.00000
     17      -6.0659      1.00000
     18      -6.0659      1.00000
     19      -5.9161      1.00000
     20      -5.6404      1.00000
     21      -5.6404      1.00000
     22      -5.5956      1.00000
     23      -5.5459      1.00000
     24      -5.5017      1.00000
     25      -5.5017      1.00000
     26      -5.3353      1.00000
     27      -5.3353      1.00000
     28      -5.3131      1.00000
     29      -5.3014      1.00000
     30      -5.3014      1.00000
     31      -5.2687      1.00000
     32      -5.2021      1.00000
     33      -5.2021      1.00000
     34      -5.0450      1.00000
     35      -5.0450      1.00000
     36      -4.8487      1.00000
     37      -4.8021      1.00000
     38      -4.8021      1.00000
     39      -4.6559      1.00000
     40      -4.6559      1.00000
     41      -4.6175      1.00000
     42      -4.6175      1.00000
     43      -4.6175      1.00000
     44      -4.5683      1.00000
     45      -4.3806      1.00000
     46      -4.3806      1.00000
     47      -4.2536      1.00000
     48      -4.2536      1.00000
     49      -4.2037      1.00000
     50      -4.1963      1.00000
     51      -4.1591      1.00000
     52      -4.1591      1.00000
     53      -4.1475      1.00000
     54      -4.1475      1.00000
     55      -4.1206      1.00000
     56      -4.1206      1.00000
     57      -4.1165      1.00000
     58      -3.9877      1.00000
     59      -3.9877      1.00000
     60      -3.9120      1.00000
     61      -3.9120      1.00000
     62      -3.9052      1.00000
     63      -3.8456      1.00000
     64      -3.1890      1.00000
     65      -2.5042      0.10676
     66      -2.5042      0.10673
     67      -2.5039      0.10572
     68      -1.4005      0.00000
     69      -1.4005      0.00000
     70      -1.3707      0.00000
     71      -0.9856      0.00000
     72      -0.9669      0.00000
     73      -0.9669      0.00000
     74      -0.4879      0.00000
     75       1.6761      0.00000
     76       1.9482      0.00000
     77       1.9482      0.00000
     78       2.0168      0.00000
     79       2.1496      0.00000
     80       2.2924      0.00000
     81       2.6844      0.00000
     82       2.8610      0.00000
     83       3.1249      0.00000
     84       3.1249      0.00000
     85       3.5125      0.00000
     86       3.5813      0.00000
     87       3.7960      0.00000
     88       3.9017      0.00000
     89       3.9017      0.00000
     90       4.8105      0.00000
     91       4.8944      0.00000
     92       5.8289      0.00000
     93       6.3427      0.00000
     94       6.3552      0.00000
     95       6.3552      0.00000
     96       6.4413      0.00000

 k-point     2 :       0.2000    0.0000    0.0000
  band No.  band energies     occupation 
      1     -10.8515      1.00000
      2      -8.9933      1.00000
      3      -7.6132      1.00000
      4      -7.5078      1.00000
      5      -7.2943      1.00000
      6      -7.1896      1.00000
      7      -7.1001      1.00000
      8      -7.0197      1.00000
      9      -6.9601      1.00000
     10      -6.7775      1.00000
     11      -6.6511      1.00000
     12      -6.6201      1.00000
     13      -6.5683      1.00000
     14      -6.4930      1.00000
     15      -6.4844      1.00000
     16      -6.4087      1.00000
     17      -6.0544      1.00000
     18      -6.0286      1.00000
     19      -5.9088      1.00000
     20      -5.6475      1.00000
     21      -5.5881      1.00000
     22      -5.5879      1.00000
     23      -5.5667      1.00000
     24      -5.5381      1.00000
     25      -5.5111      1.00000
     26      -5.4332      1.00000
     27      -5.4034      1.00000
     28      -5.3948      1.00000
     29      -5.2827      1.00000
     30      -5.2780      1.00000
     31      -5.2381      1.00000
     32      -5.2313      1.00000
     33      -5.1823      1.00000
     34      -5.1447      1.00000
     35      -5.1102      1.00000
     36      -5.0970      1.00000
     37      -4.9076      1.00000
     38      -4.8662      1.00000
     39      -4.7751      1.00000
     40      -4.7181      1.00000
     41      -4.7106      1.00000
     42      -4.6616      1.00000
     43      -4.6531      1.00000
     44      -4.5982      1.00000
     45      -4.5717      1.00000
     46      -4.4594      1.00000
     47      -4.4437      1.00000
     48      -4.3885      1.00000
     49      -4.3753      1.00000
     50      -4.3075      1.00000
     51      -4.2996      1.00000
     52      -4.2903      1.00000
     53      -4.2599      1.00000
     54      -4.2445      1.00000
     55      -4.2249      1.00000
     56      -4.1911      1.00000
     57      -4.1413      1.00000
     58      -4.1180      1.00000
     59      -4.0723      1.00000
     60      -4.0674      1.00000
     61      -4.0306      1.00000
     62      -3.9992      1.00000
     63      -3.9507      1.00000
     64      -3.8390      1.00000
     65      -2.9922      1.00000
     66      -2.5976      0.79179
     67      -2.5515      0.40839
     68      -2.4997      0.09200
     69      -1.5288      0.00000
     70      -1.4823      0.00000
     71      -0.7299      0.00000
     72      -0.0446      0.00000
     73       0.0314      0.00000
     74       0.5738      0.00000
     75       1.9768      0.00000
     76       2.3056      0.00000
     77       2.3280      0.00000
     78       2.4329      0.00000
     79       2.5943      0.00000
     80       2.7175      0.00000
     81       2.9912      0.00000
     82       3.1488      0.00000
     83       3.1525      0.00000
     84       3.3138      0.00000
     85       3.8344      0.00000
     86       3.9425      0.00000
     87       4.1438      0.00000
     88       4.4759      0.00000
     89       4.6275      0.00000
     90       5.1269      0.00000
     91       5.1923      0.00000
     92       5.9809      0.00000
     93       6.0294      0.00000
     94       6.2460      0.00000
     95       6.5770      0.00000
     96       6.6593      0.00000

 k-point     3 :       0.4000    0.0000    0.0000
  band No.  band energies     occupation 
      1      -9.9482      1.00000
      2      -8.6632      1.00000
      3      -8.2047      1.00000
      4      -7.4135      1.00000
      5      -7.1024      1.00000
      6      -7.0211      1.00000
      7      -6.9271      1.00000
      8      -6.8751      1.00000
      9      -6.7366      1.00000
     10      -6.6386      1.00000
     11      -6.5667      1.00000
     12      -6.4139      1.00000
     13      -6.3591      1.00000
     14      -6.2322      1.00000
     15      -6.2191      1.00000
     16      -6.1423      1.00000
     17      -5.9743      1.00000
     18      -5.9509      1.00000
     19      -5.9058      1.00000
     20      -5.8878      1.00000
     21      -5.8137      1.00000
     22      -5.8080      1.00000
     23      -5.7168      1.00000
     24      -5.5922      1.00000
     25      -5.5716      1.00000
     26      -5.4575      1.00000
     27      -5.4408      1.00000
     28      -5.4321      1.00000
     29      -5.3894      1.00000
     30      -5.3357      1.00000
     31      -5.2982      1.00000
     32      -5.2580      1.00000
     33      -5.2093      1.00000
     34      -5.1993      1.00000
     35      -5.1589      1.00000
     36      -5.1409      1.00000
     37      -5.1377      1.00000
     38      -5.0749      1.00000
     39      -5.0633      1.00000
     40      -5.0420      1.00000
     41      -5.0396      1.00000
     42      -4.9801      1.00000
     43      -4.8038      1.00000
     44      -4.7926      1.00000
     45      -4.7681      1.00000
     46      -4.7465      1.00000
     47      -4.7159      1.00000
     48      -4.6670      1.00000
     49      -4.6002      1.00000
     50      -4.5661      1.00000
     51      -4.5421      1.00000
     52      -4.5189      1.00000
     53      -4.4214      1.00000
     54      -4.3937      1.00000
     55      -4.3935      1.00000
     56      -4.3782      1.00000
     57      -4.3445      1.00000
     58      -4.2639      1.00000
     59      -4.1794      1.00000
     60      -4.1389      1.00000
     61      -4.1222      1.00000
     62      -4.1136      1.00000
     63      -4.0542      1.00000
     64      -4.0436      1.00000
     65      -3.3234      1.00000
     66      -2.5850      0.70449
     67      -2.5468      0.36692
     68      -2.2025      0.00000
     69      -1.4970      0.00000
     70      -1.4128      0.00000
     71      -1.0106      0.00000
     72       0.2441      0.00000
     73       0.9510      0.00000
     74       1.1284      0.00000
     75       2.2800      0.00000
     76       2.9640      0.00000
     77       3.2626      0.00000
     78       3.3255      0.00000
     79       3.4434      0.00000
     80       3.5208      0.00000
     81       3.9191      0.00000
     82       4.0490      0.00000
     83       4.1225      0.00000
     84       4.2997      0.00000
     85       4.7537      0.00000
     86       4.8196      0.00000
     87       4.8695      0.00000
     88       5.0189      0.00000
     89       5.0512      0.00000
     90       5.2196      0.00000
     91       5.4106      0.00000
     92       5.5059      0.00000
     93       5.8697      0.00000
     94       6.0075      0.00000
     95       6.0405      0.00000
     96       6.0525      0.00000

 k-point     4 :       0.4000    0.2000    0.0000
  band No.  band energies     occupation 
      1     -10.2399      1.00000
      2      -8.4621      1.00000
      3      -7.8852      1.00000
      4      -7.8256      1.00000
      5      -7.2115      1.00000
      6      -7.0678      1.00000
      7      -7.0124      1.00000
      8      -6.8477      1.00000
      9      -6.7836      1.00000
     10      -6.6177      1.00000
     11      -6.5249      1.00000
     12      -6.4843      1.00000
     13      -6.4195      1.00000
     14      -6.2845      1.00000
     15      -6.2751      1.00000
     16      -6.2244      1.00000
     17      -6.0113      1.00000
     18      -5.9927      1.00000
     19      -5.9231      1.00000
     20      -5.8235      1.00000
     21      -5.7250      1.00000
     22      -5.6952      1.00000
     23      -5.6492      1.00000
     24      -5.6365      1.00000
     25      -5.5514      1.00000
     26      -5.4878      1.00000
     27      -5.4353      1.00000
     28      -5.3910      1.00000
     29      -5.3541      1.00000
     30      -5.3487      1.00000
     31      -5.3217      1.00000
     32      -5.3061      1.00000
     33      -5.2520      1.00000
     34      -5.1865      1.00000
     35      -5.1495      1.00000
     36      -5.0951      1.00000
     37      -5.0522      1.00000
     38      -5.0085      1.00000
     39      -4.9616      1.00000
     40      -4.9430      1.00000
     41      -4.8818      1.00000
     42      -4.8672      1.00000
     43      -4.8442      1.00000
     44      -4.7872      1.00000
     45      -4.7558      1.00000
     46      -4.7177      1.00000
     47      -4.6588      1.00000
     48      -4.6097      1.00000
     49      -4.5777      1.00000
     50      -4.5658      1.00000
     51      -4.4734      1.00000
     52      -4.4493      1.00000
     53      -4.3796      1.00000
     54      -4.3457      1.00000
     55      -4.2794      1.00000
     56      -4.2702      1.00000
     57      -4.2136      1.00000
     58      -4.2029      1.00000
     59      -4.1720      1.00000
     60      -4.1574      1.00000
     61      -4.1456      1.00000
     62      -4.1162      1.00000
     63      -3.8359      1.00000
     64      -3.8277      1.00000
     65      -3.6661      1.00000
     66      -3.1995      1.00000
     67      -3.1117      1.00000
     68      -1.9739      0.00000
     69      -0.8333      0.00000
     70      -0.7718      0.00000
     71      -0.6787      0.00000
     72      -0.1325      0.00000
     73       0.5591      0.00000
     74       0.9157      0.00000
     75       2.4383      0.00000
     76       2.4803      0.00000
     77       2.5418      0.00000
     78       2.9523      0.00000
     79       3.1919      0.00000
     80       3.3318      0.00000
     81       3.6132      0.00000
     82       3.7581      0.00000
     83       4.1705      0.00000
     84       4.4278      0.00000
     85       4.4710      0.00000
     86       4.4876      0.00000
     87       4.6389      0.00000
     88       5.0559      0.00000
     89       5.3134      0.00000
     90       5.6462      0.00000
     91       5.7430      0.00000
     92       5.7856      0.00000
     93       6.0127      0.00000
     94       6.1032      0.00000
     95       6.1855      0.00000
     96       6.2449      0.00000

 k-point     5 :      -0.4000    0.2000    0.0000
  band No.  band energies     occupation 
      1      -9.1549      1.00000
      2      -9.0857      1.00000
      3      -7.9912      1.00000
      4      -7.6776      1.00000
      5      -7.4713      1.00000
      6      -7.0297      1.00000
      7      -6.7603      1.00000
      8      -6.5547      1.00000
      9      -6.5188      1.00000
     10      -6.5078      1.00000
     11      -6.4931      1.00000
     12      -6.2752      1.00000
     13      -6.2488      1.00000
     14      -6.2291      1.00000
     15      -6.1973      1.00000
     16      -6.0688      1.00000
     17      -6.0311      1.00000
     18      -6.0035      1.00000
     19      -5.9795      1.00000
     20      -5.9128      1.00000
     21      -5.8733      1.00000
     22      -5.7875      1.00000
     23      -5.7258      1.00000
     24      -5.6643      1.00000
     25      -5.6283      1.00000
     26      -5.6083      1.00000
     27      -5.5789      1.00000
     28      -5.5517      1.00000
     29      -5.5306      1.00000
     30      -5.4743      1.00000
     31      -5.4153      1.00000
     32      -5.3648      1.00000
     33      -5.3190      1.00000
     34      -5.2788      1.00000
     35      -5.2489      1.00000
     36      -5.2267      1.00000
     37      -5.1714      1.00000
     38      -5.1624      1.00000
     39      -5.1349      1.00000
     40      -5.0610      1.00000
     41      -5.0236      1.00000
     42      -4.9169      1.00000
     43      -4.8397      1.00000
     44      -4.7902      1.00000
     45      -4.7374      1.00000
     46      -4.7093      1.00000
     47      -4.6798      1.00000
     48      -4.6472      1.00000
     49      -4.6336      1.00000
     50      -4.5653      1.00000
     51      -4.5016      1.00000
     52      -4.4666      1.00000
     53      -4.4195      1.00000
     54      -4.4119      1.00000
     55      -4.3615      1.00000
     56      -4.3353      1.00000
     57      -4.3293      1.00000
     58      -4.2409      1.00000
     59      -4.2090      1.00000
     60      -4.1987      1.00000
     61      -4.1783      1.00000
     62      -4.1411      1.00000
     63      -4.1209      1.00000
     64      -4.0699      1.00000
     65      -3.7632      1.00000
     66      -3.3823      1.00000
     67      -2.8601      0.99998
     68      -2.0796      0.00000
     69      -1.2258      0.00000
     70      -0.4980      0.00000
     71      -0.2632      0.00000
     72       0.5947      0.00000
     73       0.9094      0.00000
     74       1.7399      0.00000
     75       2.2388      0.00000
     76       2.4077      0.00000
     77       2.9694      0.00000
     78       3.6138      0.00000
     79       3.6856      0.00000
     80       3.9828      0.00000
     81       4.1490      0.00000
     82       4.2406      0.00000
     83       4.2967      0.00000
     84       4.4256      0.00000
     85       4.4426      0.00000
     86       4.8033      0.00000
     87       4.8517      0.00000
     88       4.9268      0.00000
     89       4.9345      0.00000
     90       4.9380      0.00000
     91       5.5354      0.00000
     92       5.6601      0.00000
     93       5.7204      0.00000
     94       5.7531      0.00000
     95       5.8203      0.00000
     96       5.9154      0.00000


--------------------------------------------------------------------------------------------------------


 soft charge-density along one line, spin component           1
         0         1         2         3         4         5         6         7         8         9
 total charge-density along one line
 
 soft charge-density along one line, spin component           2
         0         1         2         3         4         5         6         7         8         9
 total charge-density along one line
 
 pseudopotential strength for first ion, spin component:           1
-10.097  -0.003  -0.005  -0.005   0.000   0.716   0.002   0.003
 -0.003 -10.065  -0.002   0.005  -0.002   0.002   0.690   0.002
 -0.005  -0.002 -10.058  -0.004  -0.003   0.003   0.002   0.684
 -0.005   0.005  -0.004 -10.060  -0.003   0.004  -0.003   0.003
  0.000  -0.002  -0.003  -0.003 -10.097  -0.000   0.001   0.002
  0.716   0.002   0.003   0.004  -0.000   6.485  -0.002  -0.002
  0.002   0.690   0.002  -0.003   0.001  -0.002   6.503  -0.001
  0.003   0.002   0.684   0.003   0.002  -0.002  -0.001   6.508
  0.004  -0.003   0.003   0.686   0.002  -0.003   0.002  -0.002
 -0.000   0.001   0.002   0.002   0.716   0.000  -0.001  -0.001
 -0.001   0.001  -0.007   0.001  -0.000   0.000  -0.000   0.002
 -0.001   0.001  -0.014   0.002  -0.001   0.001  -0.000   0.004
  0.002  -0.008  -0.001   0.000  -0.001  -0.001   0.009   0.000
  0.000   0.001  -0.008   0.002   0.000  -0.000  -0.001   0.008
  0.001   0.000  -0.001  -0.008   0.002  -0.001  -0.000   0.001
  0.003  -0.010  -0.001   0.000  -0.001  -0.002   0.011   0.001
  0.000   0.002  -0.009   0.003   0.000  -0.000  -0.001   0.010
  0.002   0.000  -0.002  -0.009   0.003  -0.001  -0.000   0.001
 pseudopotential strength for first ion, spin component:           2
-10.097  -0.003  -0.005  -0.005   0.000   0.716   0.002   0.003
 -0.003 -10.065  -0.002   0.005  -0.002   0.002   0.690   0.002
 -0.005  -0.002 -10.058  -0.004  -0.003   0.003   0.002   0.684
 -0.005   0.005  -0.004 -10.060  -0.003   0.004  -0.003   0.003
  0.000  -0.002  -0.003  -0.003 -10.097  -0.000   0.001   0.002
  0.716   0.002   0.003   0.004  -0.000   6.485  -0.002  -0.002
  0.002   0.690   0.002  -0.003   0.001  -0.002   6.503  -0.001
  0.003   0.002   0.684   0.003   0.002  -0.002  -0.001   6.508
  0.004  -0.003   0.003   0.686   0.002  -0.003   0.002  -0.002
 -0.000   0.001   0.002   0.002   0.716   0.000  -0.001  -0.001
 -0.001   0.001  -0.007   0.001  -0.000   0.000  -0.000   0.002
 -0.001   0.001  -0.014   0.002  -0.001   0.001  -0.000   0.004
  0.002  -0.008  -0.001   0.000  -0.001  -0.001   0.009   0.000
  0.000   0.001  -0.008   0.002   0.000  -0.000  -0.001   0.008
  0.001   0.000  -0.001  -0.008   0.002  -0.001  -0.000   0.001
  0.003  -0.010  -0.001   0.000  -0.001  -0.002   0.011   0.001
  0.000   0.002  -0.009   0.003   0.000  -0.000  -0.001   0.010
  0.002   0.000  -0.002  -0.009   0.003  -0.001  -0.000   0.001
 total augmentation occupancy for first ion, spin component:           1
  1.908  -0.001   0.000  -0.005   0.001  -0.016   0.000   0.000   0.004  -0.000  -0.004  -0.001  -0.001   0.002   0.005   0.001
 -0.001   1.923  -0.003   0.002  -0.003   0.000  -0.032   0.001  -0.000   0.004  -0.007   0.000   0.005   0.002   0.002  -0.008
  0.000  -0.003   1.924  -0.005   0.000   0.000   0.001  -0.028   0.001   0.000   0.003   0.014  -0.001   0.051  -0.001  -0.000
 -0.005   0.002  -0.005   1.925  -0.001   0.005  -0.000   0.001  -0.033   0.000  -0.011   0.000   0.002   0.003   0.008   0.000
  0.001  -0.003   0.000  -0.001   1.907  -0.000   0.004   0.000   0.000  -0.016  -0.002  -0.001   0.006   0.001  -0.001  -0.001
 -0.016   0.000   0.000   0.005  -0.000   0.014  -0.000   0.000   0.000   0.000   0.000   0.000   0.000  -0.000   0.003  -0.000
  0.000  -0.032   0.001  -0.000   0.004  -0.000   0.010  -0.000   0.000   0.000   0.002   0.000   0.017  -0.000  -0.001  -0.001
  0.000   0.001  -0.028   0.001   0.000   0.000  -0.000   0.013  -0.000   0.000  -0.044   0.002   0.000   0.022   0.001   0.000
  0.004  -0.000   0.001  -0.033   0.000   0.000   0.000  -0.000   0.010  -0.000   0.003   0.000  -0.001  -0.001   0.017   0.000
 -0.000   0.004   0.000   0.000  -0.016   0.000   0.000   0.000  -0.000   0.014   0.000   0.000   0.003  -0.000   0.000  -0.000
 -0.004  -0.007   0.003  -0.011  -0.002   0.000   0.002  -0.044   0.003   0.000   1.710  -0.134  -0.002   0.127  -0.004   0.000
 -0.001   0.000   0.014   0.000  -0.001   0.000   0.000   0.002   0.000   0.000  -0.134   0.017  -0.000  -0.023  -0.001  -0.000
 -0.001   0.005  -0.001   0.002   0.006   0.000   0.017   0.000  -0.001   0.003  -0.002  -0.000   0.209   0.003   0.003  -0.013
  0.002   0.002   0.051   0.003   0.001  -0.000  -0.000   0.022  -0.001  -0.000   0.127  -0.023   0.003   0.123   0.004  -0.000
  0.005   0.002  -0.001   0.008  -0.001   0.003  -0.001   0.001   0.017   0.000  -0.004  -0.001   0.003   0.004   0.212  -0.000
  0.001  -0.008  -0.000   0.000  -0.001  -0.000  -0.001   0.000   0.000  -0.000   0.000  -0.000  -0.013  -0.000  -0.000   0.001
  0.000   0.001  -0.013   0.001   0.000   0.000  -0.000  -0.001  -0.000   0.000  -0.018   0.002  -0.000  -0.008  -0.000  -0.000
  0.000   0.000  -0.001  -0.008   0.001  -0.000   0.000   0.000  -0.001  -0.000   0.000  -0.000  -0.000  -0.000  -0.013  -0.000
 total augmentation occupancy for first ion, spin component:           2
 -0.000   0.000   0.000   0.000   0.000   0.000  -0.000   0.000  -0.000   0.000  -0.000   0.000   0.000   0.000  -0.000  -0.000
  0.000  -0.000   0.000  -0.000   0.000   0.000   0.000   0.000  -0.000  -0.000  -0.000   0.000   0.000  -0.000   0.000   0.000
  0.000   0.000  -0.000   0.000   0.000  -0.000   0.000   0.000   0.000  -0.000  -0.000   0.000   0.000   0.000   0.000  -0.000
  0.000  -0.000   0.000  -0.000   0.000   0.000  -0.000   0.000  -0.000   0.000  -0.000   0.000   0.000  -0.000   0.000  -0.000
  0.000   0.000   0.000   0.000  -0.000   0.000  -0.000   0.000  -0.000   0.000  -0.000   0.000  -0.000   0.000   0.000   0.000
  0.000   0.000  -0.000   0.000   0.000  -0.000  -0.000   0.000   0.000   0.000  -0.000  -0.000   0.000   0.000   0.000   0.000
 -0.000   0.000   0.000  -0.000  -0.000  -0.000  -0.000  -0.000   0.000   0.000   0.000  -0.000  -0.000  -0.000  -0.000   0.000
  0.000   0.000   0.000   0.000   0.000   0.000  -0.000  -0.000  -0.000   0.000   0.000  -0.000  -0.000  -0.000  -0.000   0.000
 -0.000  -0.000   0.000  -0.000  -0.000   0.000   0.000  -0.000   0.000  -0.000   0.000  -0.000  -0.000  -0.000  -0.000   0.000
  0.000  -0.000  -0.000   0.000   0.000   0.000   0.000   0.000  -0.000  -0.000  -0.000  -0.000   0.000   0.000   0.000  -0.000
 -0.000  -0.000  -0.000  -0.000  -0.000  -0.000   0.000   0.000   0.000  -0.000  -0.000   0.000   0.000  -0.000   0.000  -0.000
  0.000   0.000   0.000   0.000   0.000  -0.000  -0.000  -0.000  -0.000  -0.000   0.000  -0.000  -0.000  -0.000  -0.000  -0.000
  0.000   0.000   0.000   0.000  -0.000   0.000  -0.000  -0.000  -0.000   0.000   0.000  -0.000  -0.000   0.000  -0.000  -0.000
  0.000  -0.000   0.000  -0.000   0.000   0.000  -0.000  -0.000  -0.000   0.000  -0.000  -0.000   0.000  -0.000   0.000   0.000
 -0.000   0.000   0.000   0.000   0.000   0.000  -0.000  -0.000  -0.000   0.000   0.000  -0.000  -0.000   0.000  -0.000   0.000
 -0.000   0.000  -0.000  -0.000   0.000   0.000   0.000   0.000   0.000  -0.000  -0.000  -0.000  -0.000   0.000   0.000   0.000
 -0.000  -0.000   0.000  -0.000  -0.000   0.000   0.000  -0.000   0.000   0.000   0.000   0.000  -0.000  -0.000  -0.000   0.000
  0.000  -0.000  -0.000  -0.000  -0.000  -0.000   0.000   0.000   0.000   0.000  -0.000  -0.000   0.000   0.000   0.000  -0.000


------------------------ aborting loop because EDIFF is reached ----------------------------------------


    CHARGE:  cpu time      0.1135: real time      0.1140
    FORLOC:  cpu time      0.0022: real time      0.0022
    FORNL :  cpu time      0.2321: real time      0.2342
    STRESS:  cpu time      1.5599: real time      1.5738
    FORCOR:  cpu time      0.0381: real time      0.0383
    FORHAR:  cpu time      0.0044: real time      0.0044
    MIXING:  cpu time      0.0010: real time      0.0010
    OFIELD:  cpu time      0.0000: real time      0.0000

 ---------------------------------------------------------------------------------------------

         DFTD3 V3.0 Rev 1        
 Edisp (eV)   -4.66130

 E6    (eV) :    -2.5753
 E8    (eV) :    -2.0860
 % E8        : 44.75
    FORVDW:  cpu time      0.0093: real time      0.0094

  FORCE on cell =-STRESS in cart. coord.  units (eV):
  Direction    XX          YY          ZZ          XY          YZ          ZX
  --------------------------------------------------------------------------------------
  Alpha Z   137.59429   137.59429   137.59429
  Ewald  132503.74029132503.74029************    -0.00000    -0.00000    -0.00000
  Hartree136397.07827136397.07827************     0.00000    -0.00000    -0.00000
  E(xc)    -772.75483  -772.75469  -774.57003    -0.00012     0.00000     0.00000
  Local  ************************273560.04510     0.00203    -0.00000    -0.00000
  n-local  -254.53044  -267.75801  -265.64800    -7.78813    -0.05717     0.00229
  augment  1134.52812  1134.53020  1139.06563    -0.00181     0.00002     0.00003
  Kinetic  1079.92353  1080.94830  1088.76690     0.72224    -0.87869     1.06484
  Fock        0.00000     0.00000     0.00000     0.00000     0.00000     0.00000
  vdW        -4.92597    -4.92597    -2.45295     0.00000    -0.00000    -0.00000
  -------------------------------------------------------------------------------------
  Total      -7.77058    -7.77058    -2.70609     0.00000    -0.00000     0.00000
  in kB     -16.09488   -16.09488    -5.60502     0.00000    -0.00000     0.00000
  external pressure =      -12.60 kB  Pullay stress =        0.00 kB


 VOLUME and BASIS-vectors are now :
 -----------------------------------------------------------------------------
  energy-cutoff  :      600.00
  volume of cell :      773.53
      direct lattice vectors                 reciprocal lattice vectors
     5.112382028  0.000000000  0.000000000     0.195603536 -0.112931754  0.000000000
     2.556191014  4.427452710  0.000000000     0.000000000  0.225863508  0.000000000
     0.000000000  0.000000000 34.174242446     0.000000000  0.000000000  0.029261804

  length of vectors
     5.112382028  5.112382028 34.174242446     0.225863508  0.225863508  0.029261804


 FORCES acting on ions
    electron-ion (+dipol)            ewald-force                    non-local-force                 convergence-correction
 -----------------------------------------------------------------------------------------------
   -.389E+00 -.225E+00 0.318E+04   0.420E-01 0.242E-01 -.317E+04   0.288E+00 0.166E+00 -.168E+01   -.143E-02 -.827E-03 0.140E+00
   0.389E+00 -.225E+00 0.318E+04   -.420E-01 0.242E-01 -.317E+04   -.288E+00 0.166E+00 -.168E+01   0.143E-02 -.827E-03 0.140E+00
   0.274E-05 0.449E+00 0.318E+04   -.417E-08 -.485E-01 -.317E+04   0.793E-17 -.333E+00 -.168E+01   0.135E-07 0.165E-02 0.140E+00
   0.255E-05 0.147E-05 0.318E+04   0.502E-08 0.461E-08 -.317E+04   -.113E-16 0.248E-17 -.356E+01   0.330E-09 0.191E-09 0.131E+00
   -.257E-05 -.185E+01 0.355E+02   -.579E-08 0.937E+00 -.350E+02   0.129E-16 0.898E+00 -.769E+00   -.471E-07 0.718E-03 0.207E+00
   -.230E-05 -.132E-05 0.339E+02   0.456E-08 -.819E-08 -.340E+02   -.310E-17 -.622E-17 -.121E+00   -.648E-09 -.374E-09 0.218E+00
   0.160E+01 0.925E+00 0.355E+02   -.812E+00 -.469E+00 -.350E+02   -.778E+00 -.449E+00 -.769E+00   -.622E-03 -.359E-03 0.207E+00
   -.160E+01 0.925E+00 0.355E+02   0.812E+00 -.469E+00 -.350E+02   0.778E+00 -.449E+00 -.769E+00   0.622E-03 -.359E-03 0.207E+00
   -.828E-06 -.479E-06 -.305E+04   -.618E-08 -.249E-08 0.306E+04   -.558E-17 -.214E-17 -.642E+01   -.546E-08 -.315E-08 0.230E+00
   -.452E-06 -.321E-01 -.312E+04   0.517E-08 -.823E-08 0.311E+04   0.285E-17 0.327E-01 0.361E+01   -.272E-07 0.417E-02 0.999E-01
   -.278E-01 0.161E-01 -.312E+04   -.491E-08 0.813E-08 0.311E+04   0.284E-01 -.164E-01 0.361E+01   0.362E-02 -.209E-02 0.999E-01
   0.278E-01 0.161E-01 -.312E+04   0.611E-08 0.220E-08 0.311E+04   -.284E-01 -.164E-01 0.361E+01   -.362E-02 -.209E-02 0.999E-01
   -.120E-06 -.691E-07 -.431E+03   -.200E-09 -.112E-09 0.433E+03   0.609E-19 -.103E-18 -.201E+01   -.492E-10 -.284E-10 0.326E-02
 -----------------------------------------------------------------------------------------------
   -.539E-06 -.308E-06 0.672E+01   0.994E-13 -.356E-13 0.909E-12   0.609E-19 -.111E-15 -.862E+01   0.261E-08 0.151E-08 0.192E+01
 
 
 POSITION                                       TOTAL-FORCE (eV/Angst)
 -----------------------------------------------------------------------------------
      1.27810      0.73791     15.00000        -0.060493     -0.034926      0.162235
      3.83429      0.73791     15.00000         0.060493     -0.034926      0.162235
      2.55619      2.95164     15.00000         0.000000      0.069852      0.162235
      5.11238      2.95164     15.00000         0.000000     -0.000000      0.168183
      5.11238      1.47582     17.08712         0.000000     -0.015051     -0.013012
      2.55619      1.47582     17.08712         0.000000      0.000000      0.076368
      6.39048      3.68954     17.08712         0.013034      0.007525     -0.013012
      3.83429      3.68954     17.08712        -0.013034      0.007525     -0.013012
      0.00000      0.00000     19.17424         0.000000     -0.000000     -0.347234
      2.55619      0.00000     19.17424         0.000000      0.004771     -0.152147
      1.27810      2.21373     19.17424         0.004132     -0.002386     -0.152147
      3.83429      2.21373     19.17424        -0.004132     -0.002386     -0.152147
      0.00000      0.00000     20.67417         0.000000      0.000000      0.111455
 -----------------------------------------------------------------------------------
    total drift:                               -0.000001     -0.000000      0.019916


--------------------------------------------------------------------------------------------------------



  FREE ENERGIE OF THE ION-ELECTRON SYSTEM (eV)
  ---------------------------------------------------
  free  energy   TOTEN  =       -48.58059103 eV

  energy  without entropy=      -48.54263170  energy(sigma->0) =      -48.56161137
 
 d Force = 0.1069958E-01[-0.634E-02, 0.277E-01]  d Energy = 0.1126951E-01-0.570E-03
 d Force =-0.2447836E+02[-0.246E+02,-0.244E+02]  d Ewald  =-0.2447633E+02-0.202E-02


--------------------------------------------------------------------------------------------------------


    POTLOK:  cpu time      0.0496: real time      0.0498


--------------------------------------------------------------------------------------------------------




--------------------------------------------------------------------------------------------------------


    WAVPRE:  cpu time      0.0044: real time      0.0218
    FEWALD:  cpu time      0.0003: real time      0.0003
    ORTHCH:  cpu time      0.2041: real time      0.2066
     LOOP+:  cpu time     15.4142: real time     15.5996


--------------------------------------- Iteration      9(   1)  ---------------------------------------


    POTLOK:  cpu time      0.0443: real time      0.0451
    SETDIJ:  cpu time      0.0031: real time      0.0031
     EDDAV:  cpu time      2.2646: real time      2.2879
       DOS:  cpu time      0.0003: real time      0.0003
    CHARGE:  cpu time      0.1074: real time      0.1079
    MIXING:  cpu time      0.0008: real time      0.0008
    --------------------------------------------
      LOOP:  cpu time      2.4206: real time      2.4452

 eigenvalue-minimisations  :  1920
 total energy-change (2. order) :-0.8348712E-03  (-0.3552433E-02)
 number of electron     133.0000045 magnetization      -0.0000840
 augmentation part       84.2727719 magnetization      -0.0000421

 Broyden mixing:
  rms(total) = 0.51825E-02    rms(broyden)= 0.51813E-02
  rms(prec ) = 0.53180E-02
  weight for this iteration     100.00

 Free energy of the ion-electron system (eV)
  ---------------------------------------------------
  alpha Z        PSCENC =       137.59429322
  Ewald energy   TEWEN  =    123746.26817265
  -Hartree energ DENC   =   -139159.94049595
  -exchange      EXHF   =         0.00000000
  -V(xc)+E(xc)   XCENC  =       536.24972453
  PAW double counting   =     15644.78310384   -16936.70609755
  entropy T*S    EENTRO =        -0.03810884
  eigenvalues    EBANDS =      -716.34828456
  atomic energy  EATOM  =     16704.21750749
  Solvation  Ecorr_sol  =         0.00000000
  ---------------------------------------------------
  free energy    TOTEN  =       -43.92018517 eV

  energy without entropy =      -43.88207633  energy(sigma->0) =      -43.90113075


--------------------------------------------------------------------------------------------------------




--------------------------------------- Iteration      9(   2)  ---------------------------------------


    POTLOK:  cpu time      0.0442: real time      0.0447
    SETDIJ:  cpu time      0.0031: real time      0.0031
     EDDAV:  cpu time      2.6653: real time      2.6905
       DOS:  cpu time      0.0014: real time      0.0014
    --------------------------------------------
      LOOP:  cpu time      2.7140: real time      2.7398

 eigenvalue-minimisations  :  2400
 total energy-change (2. order) :-0.2259581E-04  (-0.6814851E-04)
 number of electron     133.0000045 magnetization      -0.0000840
 augmentation part       84.2727719 magnetization      -0.0000421

 Free energy of the ion-electron system (eV)
  ---------------------------------------------------
  alpha Z        PSCENC =       137.59429322
  Ewald energy   TEWEN  =    123746.26817265
  -Hartree energ DENC   =   -139159.84105044
  -exchange      EXHF   =         0.00000000
  -V(xc)+E(xc)   XCENC  =       536.24881493
  PAW double counting   =     15643.74993884   -16935.64607354
  entropy T*S    EENTRO =        -0.03799070
  eigenvalues    EBANDS =      -716.47382022
  atomic energy  EATOM  =     16704.21750749
  Solvation  Ecorr_sol  =         0.00000000
  ---------------------------------------------------
  free energy    TOTEN  =       -43.92020776 eV

  energy without entropy =      -43.88221706  energy(sigma->0) =      -43.90121241


--------------------------------------------------------------------------------------------------------




 average (electrostatic) potential at core
  the test charge radii are     0.9430  0.5201
  (the norm of the test charge is              1.0000)
       1 -73.5736       2 -73.5736       3 -73.5736       4 -73.6117       5 -73.8338
       6 -73.8273       7 -73.8338       8 -73.8338       9 -74.0867      10 -73.5113
      11 -73.5113      12 -73.5113      13 -38.7832
 
 
 
 E-fermi :  -2.5612     XC(G=0):  -2.9676     alpha+bet : -2.4952

 Fermi energy:        -2.5611696345

 spin component 1

 k-point     1 :       0.0000    0.0000    0.0000
  band No.  band energies     occupation 
      1     -11.1659      1.00000
      2      -9.2803      1.00000
      3      -7.7577      1.00000
      4      -7.3790      1.00000
      5      -7.2647      1.00000
      6      -7.2647      1.00000
      7      -7.1199      1.00000
      8      -7.0659      1.00000
      9      -7.0659      1.00000
     10      -6.8085      1.00000
     11      -6.6939      1.00000
     12      -6.6939      1.00000
     13      -6.6473      1.00000
     14      -6.6473      1.00000
     15      -6.6420      1.00000
     16      -6.5012      1.00000
     17      -6.0607      1.00000
     18      -6.0607      1.00000
     19      -5.9158      1.00000
     20      -5.6390      1.00000
     21      -5.6390      1.00000
     22      -5.5954      1.00000
     23      -5.5459      1.00000
     24      -5.5026      1.00000
     25      -5.5026      1.00000
     26      -5.3339      1.00000
     27      -5.3339      1.00000
     28      -5.3125      1.00000
     29      -5.3022      1.00000
     30      -5.3022      1.00000
     31      -5.2679      1.00000
     32      -5.1999      1.00000
     33      -5.1999      1.00000
     34      -5.0442      1.00000
     35      -5.0442      1.00000
     36      -4.8481      1.00000
     37      -4.7968      1.00000
     38      -4.7968      1.00000
     39      -4.6560      1.00000
     40      -4.6560      1.00000
     41      -4.6191      1.00000
     42      -4.6174      1.00000
     43      -4.6174      1.00000
     44      -4.5675      1.00000
     45      -4.3795      1.00000
     46      -4.3795      1.00000
     47      -4.2524      1.00000
     48      -4.2524      1.00000
     49      -4.2035      1.00000
     50      -4.1959      1.00000
     51      -4.1600      1.00000
     52      -4.1600      1.00000
     53      -4.1472      1.00000
     54      -4.1472      1.00000
     55      -4.1230      1.00000
     56      -4.1230      1.00000
     57      -4.1162      1.00000
     58      -3.9879      1.00000
     59      -3.9879      1.00000
     60      -3.9088      1.00000
     61      -3.9088      1.00000
     62      -3.9013      1.00000
     63      -3.8492      1.00000
     64      -3.1894      1.00000
     65      -2.5030      0.10387
     66      -2.5030      0.10385
     67      -2.5026      0.10258
     68      -1.3991      0.00000
     69      -1.3991      0.00000
     70      -1.3707      0.00000
     71      -0.9842      0.00000
     72      -0.9658      0.00000
     73      -0.9658      0.00000
     74      -0.4964      0.00000
     75       1.6773      0.00000
     76       1.9491      0.00000
     77       1.9491      0.00000
     78       2.0162      0.00000
     79       2.1517      0.00000
     80       2.3016      0.00000
     81       2.6869      0.00000
     82       2.8654      0.00000
     83       3.1263      0.00000
     84       3.1263      0.00000
     85       3.5145      0.00000
     86       3.5844      0.00000
     87       3.7975      0.00000
     88       3.9026      0.00000
     89       3.9026      0.00000
     90       4.8095      0.00000
     91       4.8992      0.00000
     92       5.8232      0.00000
     93       6.3440      0.00000
     94       6.3545      0.00000
     95       6.3545      0.00000
     96       6.4451      0.00000

 k-point     2 :       0.2000    0.0000    0.0000
  band No.  band energies     occupation 
      1     -10.8502      1.00000
      2      -8.9888      1.00000
      3      -7.6075      1.00000
      4      -7.5068      1.00000
      5      -7.2834      1.00000
      6      -7.1893      1.00000
      7      -7.0976      1.00000
      8      -7.0161      1.00000
      9      -6.9597      1.00000
     10      -6.7681      1.00000
     11      -6.6494      1.00000
     12      -6.6195      1.00000
     13      -6.5650      1.00000
     14      -6.4903      1.00000
     15      -6.4827      1.00000
     16      -6.4034      1.00000
     17      -6.0495      1.00000
     18      -6.0238      1.00000
     19      -5.9084      1.00000
     20      -5.6472      1.00000
     21      -5.5868      1.00000
     22      -5.5865      1.00000
     23      -5.5659      1.00000
     24      -5.5388      1.00000
     25      -5.5114      1.00000
     26      -5.4324      1.00000
     27      -5.4024      1.00000
     28      -5.3959      1.00000
     29      -5.2822      1.00000
     30      -5.2767      1.00000
     31      -5.2383      1.00000
     32      -5.2294      1.00000
     33      -5.1806      1.00000
     34      -5.1435      1.00000
     35      -5.1091      1.00000
     36      -5.0948      1.00000
     37      -4.9042      1.00000
     38      -4.8626      1.00000
     39      -4.7756      1.00000
     40      -4.7177      1.00000
     41      -4.7096      1.00000
     42      -4.6609      1.00000
     43      -4.6533      1.00000
     44      -4.5975      1.00000
     45      -4.5699      1.00000
     46      -4.4586      1.00000
     47      -4.4422      1.00000
     48      -4.3879      1.00000
     49      -4.3749      1.00000
     50      -4.3075      1.00000
     51      -4.2994      1.00000
     52      -4.2903      1.00000
     53      -4.2604      1.00000
     54      -4.2446      1.00000
     55      -4.2241      1.00000
     56      -4.1907      1.00000
     57      -4.1424      1.00000
     58      -4.1177      1.00000
     59      -4.0717      1.00000
     60      -4.0674      1.00000
     61      -4.0280      1.00000
     62      -4.0003      1.00000
     63      -3.9512      1.00000
     64      -3.8397      1.00000
     65      -2.9910      1.00000
     66      -2.5975      0.79324
     67      -2.5508      0.40514
     68      -2.5008      0.09670
     69      -1.5272      0.00000
     70      -1.4807      0.00000
     71      -0.7306      0.00000
     72      -0.0443      0.00000
     73       0.0322      0.00000
     74       0.5650      0.00000
     75       1.9788      0.00000
     76       2.3065      0.00000
     77       2.3275      0.00000
     78       2.4344      0.00000
     79       2.6033      0.00000
     80       2.7185      0.00000
     81       2.9937      0.00000
     82       3.1527      0.00000
     83       3.1539      0.00000
     84       3.3146      0.00000
     85       3.8374      0.00000
     86       3.9434      0.00000
     87       4.1459      0.00000
     88       4.4771      0.00000
     89       4.6282      0.00000
     90       5.1266      0.00000
     91       5.1971      0.00000
     92       5.9807      0.00000
     93       6.0276      0.00000
     94       6.2439      0.00000
     95       6.5775      0.00000
     96       6.6607      0.00000

 k-point     3 :       0.4000    0.0000    0.0000
  band No.  band energies     occupation 
      1      -9.9466      1.00000
      2      -8.6605      1.00000
      3      -8.1995      1.00000
      4      -7.4039      1.00000
      5      -7.0933      1.00000
      6      -7.0196      1.00000
      7      -6.9264      1.00000
      8      -6.8674      1.00000
      9      -6.7369      1.00000
     10      -6.6351      1.00000
     11      -6.5635      1.00000
     12      -6.4146      1.00000
     13      -6.3569      1.00000
     14      -6.2301      1.00000
     15      -6.2167      1.00000
     16      -6.1410      1.00000
     17      -5.9701      1.00000
     18      -5.9479      1.00000
     19      -5.9050      1.00000
     20      -5.8873      1.00000
     21      -5.8142      1.00000
     22      -5.8067      1.00000
     23      -5.7152      1.00000
     24      -5.5901      1.00000
     25      -5.5701      1.00000
     26      -5.4537      1.00000
     27      -5.4362      1.00000
     28      -5.4301      1.00000
     29      -5.3876      1.00000
     30      -5.3345      1.00000
     31      -5.2971      1.00000
     32      -5.2563      1.00000
     33      -5.2072      1.00000
     34      -5.1984      1.00000
     35      -5.1592      1.00000
     36      -5.1412      1.00000
     37      -5.1361      1.00000
     38      -5.0738      1.00000
     39      -5.0614      1.00000
     40      -5.0423      1.00000
     41      -5.0397      1.00000
     42      -4.9785      1.00000
     43      -4.8031      1.00000
     44      -4.7917      1.00000
     45      -4.7679      1.00000
     46      -4.7461      1.00000
     47      -4.7153      1.00000
     48      -4.6655      1.00000
     49      -4.6014      1.00000
     50      -4.5660      1.00000
     51      -4.5409      1.00000
     52      -4.5173      1.00000
     53      -4.4211      1.00000
     54      -4.3951      1.00000
     55      -4.3929      1.00000
     56      -4.3775      1.00000
     57      -4.3444      1.00000
     58      -4.2631      1.00000
     59      -4.1779      1.00000
     60      -4.1392      1.00000
     61      -4.1218      1.00000
     62      -4.1148      1.00000
     63      -4.0555      1.00000
     64      -4.0434      1.00000
     65      -3.3255      1.00000
     66      -2.5847      0.70518
     67      -2.5462      0.36458
     68      -2.2030      0.00000
     69      -1.4956      0.00000
     70      -1.4116      0.00000
     71      -1.0130      0.00000
     72       0.2417      0.00000
     73       0.9521      0.00000
     74       1.1282      0.00000
     75       2.2687      0.00000
     76       2.9661      0.00000
     77       3.2626      0.00000
     78       3.3259      0.00000
     79       3.4446      0.00000
     80       3.5292      0.00000
     81       3.9218      0.00000
     82       4.0523      0.00000
     83       4.1234      0.00000
     84       4.3004      0.00000
     85       4.7561      0.00000
     86       4.8214      0.00000
     87       4.8700      0.00000
     88       5.0235      0.00000
     89       5.0576      0.00000
     90       5.2206      0.00000
     91       5.4151      0.00000
     92       5.5070      0.00000
     93       5.8702      0.00000
     94       6.0079      0.00000
     95       6.0408      0.00000
     96       6.0562      0.00000

 k-point     4 :       0.4000    0.2000    0.0000
  band No.  band energies     occupation 
      1     -10.2385      1.00000
      2      -8.4559      1.00000
      3      -7.8812      1.00000
      4      -7.8252      1.00000
      5      -7.1974      1.00000
      6      -7.0654      1.00000
      7      -7.0117      1.00000
      8      -6.8402      1.00000
      9      -6.7819      1.00000
     10      -6.6145      1.00000
     11      -6.5251      1.00000
     12      -6.4819      1.00000
     13      -6.4172      1.00000
     14      -6.2817      1.00000
     15      -6.2733      1.00000
     16      -6.2218      1.00000
     17      -6.0075      1.00000
     18      -5.9888      1.00000
     19      -5.9230      1.00000
     20      -5.8242      1.00000
     21      -5.7238      1.00000
     22      -5.6949      1.00000
     23      -5.6478      1.00000
     24      -5.6358      1.00000
     25      -5.5489      1.00000
     26      -5.4863      1.00000
     27      -5.4320      1.00000
     28      -5.3877      1.00000
     29      -5.3540      1.00000
     30      -5.3472      1.00000
     31      -5.3218      1.00000
     32      -5.3043      1.00000
     33      -5.2508      1.00000
     34      -5.1873      1.00000
     35      -5.1472      1.00000
     36      -5.0934      1.00000
     37      -5.0503      1.00000
     38      -5.0066      1.00000
     39      -4.9617      1.00000
     40      -4.9415      1.00000
     41      -4.8801      1.00000
     42      -4.8665      1.00000
     43      -4.8427      1.00000
     44      -4.7858      1.00000
     45      -4.7559      1.00000
     46      -4.7164      1.00000
     47      -4.6585      1.00000
     48      -4.6094      1.00000
     49      -4.5786      1.00000
     50      -4.5659      1.00000
     51      -4.4735      1.00000
     52      -4.4474      1.00000
     53      -4.3791      1.00000
     54      -4.3464      1.00000
     55      -4.2783      1.00000
     56      -4.2703      1.00000
     57      -4.2133      1.00000
     58      -4.2026      1.00000
     59      -4.1719      1.00000
     60      -4.1582      1.00000
     61      -4.1467      1.00000
     62      -4.1160      1.00000
     63      -3.8355      1.00000
     64      -3.8275      1.00000
     65      -3.6672      1.00000
     66      -3.1982      1.00000
     67      -3.1111      1.00000
     68      -1.9775      0.00000
     69      -0.8318      0.00000
     70      -0.7712      0.00000
     71      -0.6779      0.00000
     72      -0.1315      0.00000
     73       0.5602      0.00000
     74       0.9047      0.00000
     75       2.4395      0.00000
     76       2.4803      0.00000
     77       2.5424      0.00000
     78       2.9518      0.00000
     79       3.1997      0.00000
     80       3.3342      0.00000
     81       3.6158      0.00000
     82       3.7622      0.00000
     83       4.1703      0.00000
     84       4.4279      0.00000
     85       4.4753      0.00000
     86       4.4887      0.00000
     87       4.6397      0.00000
     88       5.0527      0.00000
     89       5.3135      0.00000
     90       5.6483      0.00000
     91       5.7435      0.00000
     92       5.7886      0.00000
     93       6.0140      0.00000
     94       6.1041      0.00000
     95       6.1883      0.00000
     96       6.2525      0.00000

 k-point     5 :      -0.4000    0.2000    0.0000
  band No.  band energies     occupation 
      1      -9.1512      1.00000
      2      -9.0855      1.00000
      3      -7.9857      1.00000
      4      -7.6693      1.00000
      5      -7.4705      1.00000
      6      -7.0193      1.00000
      7      -6.7475      1.00000
      8      -6.5535      1.00000
      9      -6.5192      1.00000
     10      -6.5062      1.00000
     11      -6.4913      1.00000
     12      -6.2763      1.00000
     13      -6.2472      1.00000
     14      -6.2283      1.00000
     15      -6.1966      1.00000
     16      -6.0679      1.00000
     17      -6.0317      1.00000
     18      -6.0038      1.00000
     19      -5.9776      1.00000
     20      -5.9100      1.00000
     21      -5.8700      1.00000
     22      -5.7818      1.00000
     23      -5.7228      1.00000
     24      -5.6621      1.00000
     25      -5.6263      1.00000
     26      -5.6062      1.00000
     27      -5.5764      1.00000
     28      -5.5490      1.00000
     29      -5.5283      1.00000
     30      -5.4727      1.00000
     31      -5.4132      1.00000
     32      -5.3638      1.00000
     33      -5.3176      1.00000
     34      -5.2764      1.00000
     35      -5.2461      1.00000
     36      -5.2252      1.00000
     37      -5.1711      1.00000
     38      -5.1626      1.00000
     39      -5.1351      1.00000
     40      -5.0606      1.00000
     41      -5.0235      1.00000
     42      -4.9167      1.00000
     43      -4.8397      1.00000
     44      -4.7894      1.00000
     45      -4.7372      1.00000
     46      -4.7101      1.00000
     47      -4.6788      1.00000
     48      -4.6478      1.00000
     49      -4.6325      1.00000
     50      -4.5643      1.00000
     51      -4.5009      1.00000
     52      -4.4662      1.00000
     53      -4.4184      1.00000
     54      -4.4112      1.00000
     55      -4.3598      1.00000
     56      -4.3364      1.00000
     57      -4.3286      1.00000
     58      -4.2396      1.00000
     59      -4.2087      1.00000
     60      -4.1995      1.00000
     61      -4.1783      1.00000
     62      -4.1409      1.00000
     63      -4.1232      1.00000
     64      -4.0696      1.00000
     65      -3.7629      1.00000
     66      -3.3824      1.00000
     67      -2.8617      0.99999
     68      -2.0786      0.00000
     69      -1.2276      0.00000
     70      -0.4976      0.00000
     71      -0.2678      0.00000
     72       0.5955      0.00000
     73       0.9112      0.00000
     74       1.7352      0.00000
     75       2.2396      0.00000
     76       2.4083      0.00000
     77       2.9601      0.00000
     78       3.6136      0.00000
     79       3.6880      0.00000
     80       3.9859      0.00000
     81       4.1473      0.00000
     82       4.2417      0.00000
     83       4.2984      0.00000
     84       4.4346      0.00000
     85       4.4511      0.00000
     86       4.8065      0.00000
     87       4.8550      0.00000
     88       4.9273      0.00000
     89       4.9360      0.00000
     90       4.9415      0.00000
     91       5.5367      0.00000
     92       5.6625      0.00000
     93       5.7254      0.00000
     94       5.7540      0.00000
     95       5.8217      0.00000
     96       5.9181      0.00000
 Fermi energy:        -2.5611696345

 spin component 2

 k-point     1 :       0.0000    0.0000    0.0000
  band No.  band energies     occupation 
      1     -11.1659      1.00000
      2      -9.2803      1.00000
      3      -7.7577      1.00000
      4      -7.3790      1.00000
      5      -7.2647      1.00000
      6      -7.2647      1.00000
      7      -7.1199      1.00000
      8      -7.0659      1.00000
      9      -7.0659      1.00000
     10      -6.8086      1.00000
     11      -6.6939      1.00000
     12      -6.6939      1.00000
     13      -6.6473      1.00000
     14      -6.6473      1.00000
     15      -6.6420      1.00000
     16      -6.5012      1.00000
     17      -6.0607      1.00000
     18      -6.0607      1.00000
     19      -5.9158      1.00000
     20      -5.6390      1.00000
     21      -5.6390      1.00000
     22      -5.5954      1.00000
     23      -5.5459      1.00000
     24      -5.5026      1.00000
     25      -5.5026      1.00000
     26      -5.3339      1.00000
     27      -5.3339      1.00000
     28      -5.3125      1.00000
     29      -5.3023      1.00000
     30      -5.3022      1.00000
     31      -5.2679      1.00000
     32      -5.1999      1.00000
     33      -5.1999      1.00000
     34      -5.0442      1.00000
     35      -5.0442      1.00000
     36      -4.8481      1.00000
     37      -4.7968      1.00000
     38      -4.7968      1.00000
     39      -4.6560      1.00000
     40      -4.6560      1.00000
     41      -4.6191      1.00000
     42      -4.6174      1.00000
     43      -4.6174      1.00000
     44      -4.5675      1.00000
     45      -4.3795      1.00000
     46      -4.3795      1.00000
     47      -4.2524      1.00000
     48      -4.2524      1.00000
     49      -4.2035      1.00000
     50      -4.1959      1.00000
     51      -4.1600      1.00000
     52      -4.1600      1.00000
     53      -4.1472      1.00000
     54      -4.1472      1.00000
     55      -4.1230      1.00000
     56      -4.1230      1.00000
     57      -4.1162      1.00000
     58      -3.9879      1.00000
     59      -3.9879      1.00000
     60      -3.9088      1.00000
     61      -3.9088      1.00000
     62      -3.9013      1.00000
     63      -3.8492      1.00000
     64      -3.1894      1.00000
     65      -2.5030      0.10390
     66      -2.5030      0.10387
     67      -2.5026      0.10261
     68      -1.3991      0.00000
     69      -1.3991      0.00000
     70      -1.3707      0.00000
     71      -0.9842      0.00000
     72      -0.9658      0.00000
     73      -0.9658      0.00000
     74      -0.4964      0.00000
     75       1.6766      0.00000
     76       1.9491      0.00000
     77       1.9491      0.00000
     78       2.0143      0.00000
     79       2.1519      0.00000
     80       2.3037      0.00000
     81       2.6884      0.00000
     82       2.8664      0.00000
     83       3.1263      0.00000
     84       3.1263      0.00000
     85       3.5146      0.00000
     86       3.5846      0.00000
     87       3.7973      0.00000
     88       3.9026      0.00000
     89       3.9026      0.00000
     90       4.8094      0.00000
     91       4.9000      0.00000
     92       5.8232      0.00000
     93       6.3445      0.00000
     94       6.3545      0.00000
     95       6.3545      0.00000
     96       6.4453      0.00000

 k-point     2 :       0.2000    0.0000    0.0000
  band No.  band energies     occupation 
      1     -10.8502      1.00000
      2      -8.9888      1.00000
      3      -7.6075      1.00000
      4      -7.5068      1.00000
      5      -7.2834      1.00000
      6      -7.1893      1.00000
      7      -7.0977      1.00000
      8      -7.0161      1.00000
      9      -6.9597      1.00000
     10      -6.7681      1.00000
     11      -6.6494      1.00000
     12      -6.6195      1.00000
     13      -6.5650      1.00000
     14      -6.4903      1.00000
     15      -6.4828      1.00000
     16      -6.4034      1.00000
     17      -6.0495      1.00000
     18      -6.0238      1.00000
     19      -5.9084      1.00000
     20      -5.6472      1.00000
     21      -5.5868      1.00000
     22      -5.5865      1.00000
     23      -5.5659      1.00000
     24      -5.5388      1.00000
     25      -5.5114      1.00000
     26      -5.4324      1.00000
     27      -5.4024      1.00000
     28      -5.3960      1.00000
     29      -5.2822      1.00000
     30      -5.2767      1.00000
     31      -5.2383      1.00000
     32      -5.2294      1.00000
     33      -5.1806      1.00000
     34      -5.1435      1.00000
     35      -5.1091      1.00000
     36      -5.0949      1.00000
     37      -4.9042      1.00000
     38      -4.8626      1.00000
     39      -4.7756      1.00000
     40      -4.7177      1.00000
     41      -4.7096      1.00000
     42      -4.6609      1.00000
     43      -4.6533      1.00000
     44      -4.5975      1.00000
     45      -4.5699      1.00000
     46      -4.4586      1.00000
     47      -4.4422      1.00000
     48      -4.3879      1.00000
     49      -4.3749      1.00000
     50      -4.3075      1.00000
     51      -4.2994      1.00000
     52      -4.2903      1.00000
     53      -4.2604      1.00000
     54      -4.2446      1.00000
     55      -4.2241      1.00000
     56      -4.1907      1.00000
     57      -4.1424      1.00000
     58      -4.1177      1.00000
     59      -4.0717      1.00000
     60      -4.0674      1.00000
     61      -4.0280      1.00000
     62      -4.0003      1.00000
     63      -3.9512      1.00000
     64      -3.8397      1.00000
     65      -2.9910      1.00000
     66      -2.5975      0.79328
     67      -2.5508      0.40520
     68      -2.5009      0.09674
     69      -1.5272      0.00000
     70      -1.4807      0.00000
     71      -0.7306      0.00000
     72      -0.0444      0.00000
     73       0.0322      0.00000
     74       0.5649      0.00000
     75       1.9780      0.00000
     76       2.3065      0.00000
     77       2.3257      0.00000
     78       2.4345      0.00000
     79       2.6054      0.00000
     80       2.7185      0.00000
     81       2.9953      0.00000
     82       3.1536      0.00000
     83       3.1539      0.00000
     84       3.3147      0.00000
     85       3.8375      0.00000
     86       3.9436      0.00000
     87       4.1457      0.00000
     88       4.4771      0.00000
     89       4.6282      0.00000
     90       5.1266      0.00000
     91       5.1979      0.00000
     92       5.9807      0.00000
     93       6.0275      0.00000
     94       6.2436      0.00000
     95       6.5772      0.00000
     96       6.6618      0.00000

 k-point     3 :       0.4000    0.0000    0.0000
  band No.  band energies     occupation 
      1      -9.9466      1.00000
      2      -8.6605      1.00000
      3      -8.1995      1.00000
      4      -7.4039      1.00000
      5      -7.0933      1.00000
      6      -7.0196      1.00000
      7      -6.9264      1.00000
      8      -6.8674      1.00000
      9      -6.7369      1.00000
     10      -6.6351      1.00000
     11      -6.5635      1.00000
     12      -6.4146      1.00000
     13      -6.3569      1.00000
     14      -6.2301      1.00000
     15      -6.2167      1.00000
     16      -6.1410      1.00000
     17      -5.9701      1.00000
     18      -5.9479      1.00000
     19      -5.9050      1.00000
     20      -5.8873      1.00000
     21      -5.8142      1.00000
     22      -5.8067      1.00000
     23      -5.7152      1.00000
     24      -5.5902      1.00000
     25      -5.5701      1.00000
     26      -5.4537      1.00000
     27      -5.4362      1.00000
     28      -5.4301      1.00000
     29      -5.3876      1.00000
     30      -5.3345      1.00000
     31      -5.2971      1.00000
     32      -5.2563      1.00000
     33      -5.2072      1.00000
     34      -5.1984      1.00000
     35      -5.1592      1.00000
     36      -5.1412      1.00000
     37      -5.1361      1.00000
     38      -5.0738      1.00000
     39      -5.0614      1.00000
     40      -5.0423      1.00000
     41      -5.0397      1.00000
     42      -4.9785      1.00000
     43      -4.8031      1.00000
     44      -4.7917      1.00000
     45      -4.7679      1.00000
     46      -4.7461      1.00000
     47      -4.7153      1.00000
     48      -4.6655      1.00000
     49      -4.6014      1.00000
     50      -4.5660      1.00000
     51      -4.5409      1.00000
     52      -4.5173      1.00000
     53      -4.4211      1.00000
     54      -4.3951      1.00000
     55      -4.3929      1.00000
     56      -4.3775      1.00000
     57      -4.3444      1.00000
     58      -4.2631      1.00000
     59      -4.1779      1.00000
     60      -4.1392      1.00000
     61      -4.1218      1.00000
     62      -4.1148      1.00000
     63      -4.0555      1.00000
     64      -4.0434      1.00000
     65      -3.3255      1.00000
     66      -2.5847      0.70522
     67      -2.5462      0.36462
     68      -2.2030      0.00000
     69      -1.4956      0.00000
     70      -1.4116      0.00000
     71      -1.0130      0.00000
     72       0.2416      0.00000
     73       0.9521      0.00000
     74       1.1282      0.00000
     75       2.2686      0.00000
     76       2.9654      0.00000
     77       3.2611      0.00000
     78       3.3259      0.00000
     79       3.4449      0.00000
     80       3.5310      0.00000
     81       3.9232      0.00000
     82       4.0529      0.00000
     83       4.1231      0.00000
     84       4.3004      0.00000
     85       4.7556      0.00000
     86       4.8206      0.00000
     87       4.8701      0.00000
     88       5.0242      0.00000
     89       5.0588      0.00000
     90       5.2206      0.00000
     91       5.4164      0.00000
     92       5.5073      0.00000
     93       5.8703      0.00000
     94       6.0079      0.00000
     95       6.0408      0.00000
     96       6.0569      0.00000

 k-point     4 :       0.4000    0.2000    0.0000
  band No.  band energies     occupation 
      1     -10.2385      1.00000
      2      -8.4559      1.00000
      3      -7.8812      1.00000
      4      -7.8252      1.00000
      5      -7.1974      1.00000
      6      -7.0654      1.00000
      7      -7.0117      1.00000
      8      -6.8402      1.00000
      9      -6.7819      1.00000
     10      -6.6145      1.00000
     11      -6.5252      1.00000
     12      -6.4819      1.00000
     13      -6.4172      1.00000
     14      -6.2817      1.00000
     15      -6.2733      1.00000
     16      -6.2218      1.00000
     17      -6.0075      1.00000
     18      -5.9888      1.00000
     19      -5.9230      1.00000
     20      -5.8242      1.00000
     21      -5.7238      1.00000
     22      -5.6949      1.00000
     23      -5.6478      1.00000
     24      -5.6358      1.00000
     25      -5.5489      1.00000
     26      -5.4863      1.00000
     27      -5.4320      1.00000
     28      -5.3877      1.00000
     29      -5.3540      1.00000
     30      -5.3472      1.00000
     31      -5.3218      1.00000
     32      -5.3043      1.00000
     33      -5.2508      1.00000
     34      -5.1873      1.00000
     35      -5.1472      1.00000
     36      -5.0934      1.00000
     37      -5.0503      1.00000
     38      -5.0066      1.00000
     39      -4.9617      1.00000
     40      -4.9415      1.00000
     41      -4.8801      1.00000
     42      -4.8665      1.00000
     43      -4.8427      1.00000
     44      -4.7858      1.00000
     45      -4.7559      1.00000
     46      -4.7164      1.00000
     47      -4.6585      1.00000
     48      -4.6094      1.00000
     49      -4.5786      1.00000
     50      -4.5660      1.00000
     51      -4.4735      1.00000
     52      -4.4474      1.00000
     53      -4.3791      1.00000
     54      -4.3464      1.00000
     55      -4.2783      1.00000
     56      -4.2703      1.00000
     57      -4.2133      1.00000
     58      -4.2026      1.00000
     59      -4.1719      1.00000
     60      -4.1582      1.00000
     61      -4.1467      1.00000
     62      -4.1160      1.00000
     63      -3.8355      1.00000
     64      -3.8275      1.00000
     65      -3.6672      1.00000
     66      -3.1982      1.00000
     67      -3.1111      1.00000
     68      -1.9776      0.00000
     69      -0.8318      0.00000
     70      -0.7713      0.00000
     71      -0.6779      0.00000
     72      -0.1315      0.00000
     73       0.5602      0.00000
     74       0.9047      0.00000
     75       2.4394      0.00000
     76       2.4798      0.00000
     77       2.5424      0.00000
     78       2.9500      0.00000
     79       3.2016      0.00000
     80       3.3345      0.00000
     81       3.6172      0.00000
     82       3.7630      0.00000
     83       4.1704      0.00000
     84       4.4279      0.00000
     85       4.4755      0.00000
     86       4.4887      0.00000
     87       4.6398      0.00000
     88       5.0525      0.00000
     89       5.3131      0.00000
     90       5.6484      0.00000
     91       5.7436      0.00000
     92       5.7890      0.00000
     93       6.0132      0.00000
     94       6.1024      0.00000
     95       6.1876      0.00000
     96       6.2542      0.00000

 k-point     5 :      -0.4000    0.2000    0.0000
  band No.  band energies     occupation 
      1      -9.1512      1.00000
      2      -9.0855      1.00000
      3      -7.9857      1.00000
      4      -7.6693      1.00000
      5      -7.4705      1.00000
      6      -7.0193      1.00000
      7      -6.7475      1.00000
      8      -6.5535      1.00000
      9      -6.5192      1.00000
     10      -6.5062      1.00000
     11      -6.4913      1.00000
     12      -6.2763      1.00000
     13      -6.2472      1.00000
     14      -6.2283      1.00000
     15      -6.1966      1.00000
     16      -6.0679      1.00000
     17      -6.0318      1.00000
     18      -6.0038      1.00000
     19      -5.9776      1.00000
     20      -5.9100      1.00000
     21      -5.8700      1.00000
     22      -5.7818      1.00000
     23      -5.7228      1.00000
     24      -5.6621      1.00000
     25      -5.6263      1.00000
     26      -5.6062      1.00000
     27      -5.5764      1.00000
     28      -5.5490      1.00000
     29      -5.5283      1.00000
     30      -5.4727      1.00000
     31      -5.4132      1.00000
     32      -5.3638      1.00000
     33      -5.3176      1.00000
     34      -5.2764      1.00000
     35      -5.2461      1.00000
     36      -5.2252      1.00000
     37      -5.1711      1.00000
     38      -5.1626      1.00000
     39      -5.1351      1.00000
     40      -5.0606      1.00000
     41      -5.0235      1.00000
     42      -4.9167      1.00000
     43      -4.8397      1.00000
     44      -4.7894      1.00000
     45      -4.7372      1.00000
     46      -4.7101      1.00000
     47      -4.6788      1.00000
     48      -4.6478      1.00000
     49      -4.6325      1.00000
     50      -4.5643      1.00000
     51      -4.5009      1.00000
     52      -4.4663      1.00000
     53      -4.4184      1.00000
     54      -4.4112      1.00000
     55      -4.3598      1.00000
     56      -4.3365      1.00000
     57      -4.3286      1.00000
     58      -4.2396      1.00000
     59      -4.2087      1.00000
     60      -4.1995      1.00000
     61      -4.1783      1.00000
     62      -4.1409      1.00000
     63      -4.1232      1.00000
     64      -4.0696      1.00000
     65      -3.7629      1.00000
     66      -3.3824      1.00000
     67      -2.8617      0.99999
     68      -2.0786      0.00000
     69      -1.2276      0.00000
     70      -0.4976      0.00000
     71      -0.2678      0.00000
     72       0.5955      0.00000
     73       0.9112      0.00000
     74       1.7352      0.00000
     75       2.2396      0.00000
     76       2.4082      0.00000
     77       2.9600      0.00000
     78       3.6128      0.00000
     79       3.6879      0.00000
     80       3.9857      0.00000
     81       4.1454      0.00000
     82       4.2403      0.00000
     83       4.2986      0.00000
     84       4.4367      0.00000
     85       4.4531      0.00000
     86       4.8079      0.00000
     87       4.8564      0.00000
     88       4.9273      0.00000
     89       4.9362      0.00000
     90       4.9420      0.00000
     91       5.5372      0.00000
     92       5.6621      0.00000
     93       5.7256      0.00000
     94       5.7529      0.00000
     95       5.8219      0.00000
     96       5.9182      0.00000


--------------------------------------------------------------------------------------------------------


 soft charge-density along one line, spin component           1
         0         1         2         3         4         5         6         7         8         9
 total charge-density along one line
 
 soft charge-density along one line, spin component           2
         0         1         2         3         4         5         6         7         8         9
 total charge-density along one line
 
 pseudopotential strength for first ion, spin component:           1
-10.094  -0.003  -0.005  -0.005   0.000   0.714   0.002   0.003
 -0.003 -10.062  -0.002   0.005  -0.002   0.002   0.688   0.002
 -0.005  -0.002 -10.055  -0.004  -0.003   0.003   0.002   0.682
 -0.005   0.005  -0.004 -10.056  -0.003   0.004  -0.003   0.003
  0.000  -0.002  -0.003  -0.003 -10.094  -0.000   0.001   0.002
  0.714   0.002   0.003   0.004  -0.000   6.487  -0.002  -0.002
  0.002   0.688   0.002  -0.003   0.001  -0.002   6.505  -0.001
  0.003   0.002   0.682   0.003   0.002  -0.002  -0.001   6.510
  0.004  -0.003   0.003   0.684   0.002  -0.003   0.002  -0.002
 -0.000   0.001   0.002   0.002   0.714   0.000  -0.001  -0.001
 -0.001   0.001  -0.007   0.001  -0.000   0.000  -0.000   0.002
 -0.001   0.001  -0.014   0.002  -0.001   0.001  -0.000   0.004
  0.002  -0.008  -0.001   0.000  -0.001  -0.001   0.009   0.000
  0.000   0.001  -0.008   0.002   0.000  -0.000  -0.001   0.008
  0.001   0.000  -0.001  -0.008   0.002  -0.001  -0.000   0.001
  0.003  -0.010  -0.001   0.000  -0.001  -0.002   0.011   0.001
  0.000   0.002  -0.008   0.003   0.000  -0.000  -0.001   0.010
  0.002   0.000  -0.002  -0.009   0.003  -0.001  -0.000   0.001
 pseudopotential strength for first ion, spin component:           2
-10.094  -0.003  -0.005  -0.005   0.000   0.714   0.002   0.003
 -0.003 -10.062  -0.002   0.005  -0.002   0.002   0.688   0.002
 -0.005  -0.002 -10.055  -0.004  -0.003   0.003   0.002   0.682
 -0.005   0.005  -0.004 -10.056  -0.003   0.004  -0.003   0.003
  0.000  -0.002  -0.003  -0.003 -10.094  -0.000   0.001   0.002
  0.714   0.002   0.003   0.004  -0.000   6.487  -0.002  -0.002
  0.002   0.688   0.002  -0.003   0.001  -0.002   6.505  -0.001
  0.003   0.002   0.682   0.003   0.002  -0.002  -0.001   6.510
  0.004  -0.003   0.003   0.684   0.002  -0.003   0.002  -0.002
 -0.000   0.001   0.002   0.002   0.714   0.000  -0.001  -0.001
 -0.001   0.001  -0.007   0.001  -0.000   0.000  -0.000   0.002
 -0.001   0.001  -0.014   0.002  -0.001   0.001  -0.000   0.004
  0.002  -0.008  -0.001   0.000  -0.001  -0.001   0.009   0.000
  0.000   0.001  -0.008   0.002   0.000  -0.000  -0.001   0.008
  0.001   0.000  -0.001  -0.008   0.002  -0.001  -0.000   0.001
  0.003  -0.010  -0.001   0.000  -0.001  -0.002   0.011   0.001
  0.000   0.002  -0.008   0.003   0.000  -0.000  -0.001   0.010
  0.002   0.000  -0.002  -0.009   0.003  -0.001  -0.000   0.001
 total augmentation occupancy for first ion, spin component:           1
  1.908  -0.001   0.000  -0.005   0.001  -0.016   0.000   0.000   0.004  -0.000  -0.004  -0.001  -0.001   0.002   0.005   0.001
 -0.001   1.923  -0.003   0.002  -0.003   0.000  -0.032   0.001  -0.000   0.004  -0.007  -0.000   0.006   0.002   0.002  -0.008
  0.000  -0.003   1.924  -0.005   0.000   0.000   0.001  -0.028   0.001   0.000   0.003   0.014  -0.001   0.051  -0.001  -0.000
 -0.005   0.002  -0.005   1.925  -0.001   0.004  -0.000   0.001  -0.033   0.000  -0.011  -0.000   0.002   0.003   0.008   0.000
  0.001  -0.003   0.000  -0.001   1.907  -0.000   0.004   0.000   0.000  -0.016  -0.002  -0.001   0.006   0.001  -0.001  -0.001
 -0.016   0.000   0.000   0.004  -0.000   0.014  -0.000   0.000   0.000   0.000   0.000   0.000   0.000  -0.000   0.003  -0.000
  0.000  -0.032   0.001  -0.000   0.004  -0.000   0.010  -0.000   0.000   0.000   0.002   0.000   0.017  -0.000  -0.001  -0.001
  0.000   0.001  -0.028   0.001   0.000   0.000  -0.000   0.013  -0.000   0.000  -0.044   0.002   0.000   0.022   0.001   0.000
  0.004  -0.000   0.001  -0.033   0.000   0.000   0.000  -0.000   0.010  -0.000   0.003   0.000  -0.001  -0.001   0.017   0.000
 -0.000   0.004   0.000   0.000  -0.016   0.000   0.000   0.000  -0.000   0.014   0.000   0.000   0.003  -0.000   0.000  -0.000
 -0.004  -0.007   0.003  -0.011  -0.002   0.000   0.002  -0.044   0.003   0.000   1.711  -0.134  -0.002   0.126  -0.004   0.000
 -0.001  -0.000   0.014  -0.000  -0.001   0.000   0.000   0.002   0.000   0.000  -0.134   0.017  -0.000  -0.023  -0.001  -0.000
 -0.001   0.006  -0.001   0.002   0.006   0.000   0.017   0.000  -0.001   0.003  -0.002  -0.000   0.209   0.002   0.003  -0.013
  0.002   0.002   0.051   0.003   0.001  -0.000  -0.000   0.022  -0.001  -0.000   0.126  -0.023   0.002   0.124   0.004  -0.000
  0.005   0.002  -0.001   0.008  -0.001   0.003  -0.001   0.001   0.017   0.000  -0.004  -0.001   0.003   0.004   0.213  -0.000
  0.001  -0.008  -0.000   0.000  -0.001  -0.000  -0.001   0.000   0.000  -0.000   0.000  -0.000  -0.013  -0.000  -0.000   0.001
  0.000   0.001  -0.013   0.001   0.000   0.000  -0.000  -0.001  -0.000   0.000  -0.018   0.002  -0.000  -0.008  -0.000  -0.000
  0.000   0.000  -0.001  -0.008   0.001  -0.000   0.000   0.000  -0.001  -0.000   0.000  -0.000  -0.000  -0.000  -0.013  -0.000
 total augmentation occupancy for first ion, spin component:           2
 -0.000  -0.000  -0.000   0.000  -0.000   0.000   0.000   0.000  -0.000  -0.000  -0.000  -0.000   0.000  -0.000  -0.000  -0.000
 -0.000   0.000   0.000  -0.000   0.000   0.000   0.000   0.000  -0.000   0.000   0.000  -0.000   0.000  -0.000   0.000  -0.000
 -0.000   0.000  -0.000   0.000  -0.000  -0.000   0.000  -0.000   0.000  -0.000  -0.000   0.000  -0.000   0.000  -0.000   0.000
  0.000  -0.000   0.000   0.000  -0.000   0.000  -0.000   0.000   0.000   0.000   0.000  -0.000   0.000  -0.000   0.000  -0.000
 -0.000   0.000  -0.000  -0.000  -0.000  -0.000  -0.000   0.000   0.000   0.000  -0.000  -0.000  -0.000  -0.000   0.000   0.000
  0.000   0.000  -0.000   0.000  -0.000  -0.000   0.000   0.000  -0.000   0.000  -0.000  -0.000  -0.000   0.000   0.000   0.000
  0.000   0.000   0.000  -0.000  -0.000   0.000  -0.000  -0.000   0.000  -0.000  -0.000  -0.000   0.000   0.000   0.000   0.000
  0.000   0.000  -0.000   0.000   0.000   0.000  -0.000   0.000  -0.000   0.000  -0.000  -0.000   0.000   0.000   0.000   0.000
 -0.000  -0.000   0.000   0.000   0.000  -0.000   0.000  -0.000  -0.000   0.000  -0.000  -0.000   0.000   0.000   0.000  -0.000
 -0.000   0.000  -0.000   0.000   0.000   0.000  -0.000   0.000   0.000  -0.000  -0.000  -0.000   0.000   0.000  -0.000  -0.000
 -0.000   0.000  -0.000   0.000  -0.000  -0.000  -0.000  -0.000  -0.000  -0.000  -0.000   0.000   0.000   0.000   0.000  -0.000
 -0.000  -0.000   0.000  -0.000  -0.000  -0.000  -0.000  -0.000  -0.000  -0.000   0.000   0.000  -0.000  -0.000  -0.000  -0.000
  0.000   0.000  -0.000   0.000  -0.000  -0.000   0.000   0.000   0.000   0.000   0.000  -0.000  -0.000   0.000  -0.000  -0.000
 -0.000  -0.000   0.000  -0.000  -0.000   0.000   0.000   0.000   0.000   0.000   0.000  -0.000   0.000  -0.000   0.000  -0.000
 -0.000   0.000  -0.000   0.000   0.000   0.000   0.000   0.000   0.000  -0.000   0.000  -0.000  -0.000   0.000  -0.000   0.000
 -0.000  -0.000   0.000  -0.000   0.000   0.000   0.000   0.000  -0.000  -0.000  -0.000  -0.000  -0.000  -0.000   0.000   0.000
  0.000   0.000  -0.000   0.000   0.000   0.000  -0.000   0.000  -0.000   0.000   0.000   0.000  -0.000  -0.000  -0.000   0.000
  0.000  -0.000   0.000  -0.000  -0.000  -0.000  -0.000   0.000   0.000   0.000  -0.000  -0.000   0.000  -0.000   0.000  -0.000


------------------------ aborting loop because EDIFF is reached ----------------------------------------


    CHARGE:  cpu time      0.1071: real time      0.1080
    FORLOC:  cpu time      0.0017: real time      0.0017
    FORNL :  cpu time      0.2322: real time      0.2345
    STRESS:  cpu time      1.5501: real time      1.5641
    FORCOR:  cpu time      0.0379: real time      0.0381
    FORHAR:  cpu time      0.0043: real time      0.0043
    MIXING:  cpu time      0.0008: real time      0.0008
    OFIELD:  cpu time      0.0000: real time      0.0000

 ---------------------------------------------------------------------------------------------

         DFTD3 V3.0 Rev 1        
 Edisp (eV)   -4.66097

 E6    (eV) :    -2.5751
 E8    (eV) :    -2.0859
 % E8        : 44.75
    FORVDW:  cpu time      0.0101: real time      0.0101

  FORCE on cell =-STRESS in cart. coord.  units (eV):
  Direction    XX          YY          ZZ          XY          YZ          ZX
  --------------------------------------------------------------------------------------
  Alpha Z   137.59429   137.59429   137.59429
  Ewald  132499.53801132499.53801************    -0.00000    -0.00000    -0.00000
  Hartree136392.04460136392.04460************     0.00000    -0.00000    -0.00000
  E(xc)    -772.73734  -772.73720  -774.54630    -0.00012     0.00000     0.00000
  Local  ************************273551.10303     0.00203    -0.00000    -0.00000
  n-local  -254.44234  -267.68154  -265.65679    -7.79793    -0.05833     0.00307
  augment  1134.54598  1134.54808  1139.20491    -0.00182     0.00002     0.00003
  Kinetic  1079.82941  1080.83463  1088.68816     0.70484    -0.87688     1.06192
  Fock        0.00000     0.00000     0.00000     0.00000     0.00000     0.00000
  vdW        -4.92571    -4.92571    -2.45173     0.00000    -0.00000    -0.00000
  -------------------------------------------------------------------------------------
  Total      -7.52565    -7.52565    -2.68569     0.00000     0.00000     0.00000
  in kB     -15.58757   -15.58757    -5.56276     0.00000     0.00000     0.00000
  external pressure =      -12.25 kB  Pullay stress =        0.00 kB


 VOLUME and BASIS-vectors are now :
 -----------------------------------------------------------------------------
  energy-cutoff  :      600.00
  volume of cell :      773.53
      direct lattice vectors                 reciprocal lattice vectors
     5.112382028  0.000000000  0.000000000     0.195603536 -0.112931754  0.000000000
     2.556191014  4.427452710  0.000000000     0.000000000  0.225863508  0.000000000
     0.000000000  0.000000000 34.174242446     0.000000000  0.000000000  0.029261804

  length of vectors
     5.112382028  5.112382028 34.174242446     0.225863508  0.225863508  0.029261804


 FORCES acting on ions
    electron-ion (+dipol)            ewald-force                    non-local-force                 convergence-correction
 -----------------------------------------------------------------------------------------------
   -.373E+00 -.216E+00 0.318E+04   0.414E-01 0.239E-01 -.317E+04   0.285E+00 0.165E+00 -.168E+01   -.124E-01 -.716E-02 -.603E-01
   0.373E+00 -.216E+00 0.318E+04   -.414E-01 0.239E-01 -.317E+04   -.285E+00 0.165E+00 -.168E+01   0.124E-01 -.716E-02 -.603E-01
   0.274E-05 0.431E+00 0.318E+04   -.417E-08 -.478E-01 -.317E+04   -.873E-17 -.330E+00 -.168E+01   0.274E-08 0.143E-01 -.603E-01
   0.255E-05 0.147E-05 0.318E+04   0.502E-08 0.461E-08 -.317E+04   0.617E-18 0.285E-17 -.354E+01   -.104E-09 -.603E-10 -.454E-01
   -.257E-05 -.181E+01 0.358E+02   -.579E-08 0.923E+00 -.350E+02   0.310E-17 0.892E+00 -.766E+00   -.738E-07 -.164E-01 -.767E-01
   -.229E-05 -.132E-05 0.342E+02   0.456E-08 -.819E-08 -.339E+02   -.176E-17 0.114E-17 -.110E+00   -.507E-09 -.293E-09 -.756E-01
   0.157E+01 0.907E+00 0.358E+02   -.800E+00 -.462E+00 -.350E+02   -.773E+00 -.446E+00 -.766E+00   0.142E-01 0.822E-02 -.767E-01
   -.157E+01 0.907E+00 0.358E+02   0.800E+00 -.462E+00 -.350E+02   0.773E+00 -.446E+00 -.766E+00   -.142E-01 0.822E-02 -.767E-01
   -.812E-06 -.469E-06 -.306E+04   -.618E-08 -.249E-08 0.306E+04   -.875E-18 0.386E-17 -.630E+01   -.134E-08 -.771E-09 0.167E+00
   -.444E-06 -.179E-01 -.312E+04   0.517E-08 -.823E-08 0.311E+04   0.957E-19 0.327E-01 0.361E+01   -.320E-08 -.984E-02 -.538E-01
   -.155E-01 0.896E-02 -.312E+04   -.491E-08 0.813E-08 0.311E+04   0.283E-01 -.163E-01 0.361E+01   -.852E-02 0.492E-02 -.538E-01
   0.155E-01 0.896E-02 -.312E+04   0.611E-08 0.220E-08 0.311E+04   -.283E-01 -.163E-01 0.361E+01   0.852E-02 0.492E-02 -.538E-01
   -.128E-06 -.740E-07 -.430E+03   -.197E-09 -.110E-09 0.432E+03   -.577E-19 0.405E-19 -.197E+01   -.407E-09 -.235E-09 -.150E-01
 -----------------------------------------------------------------------------------------------
   -.510E-06 -.291E-06 0.897E+01   0.994E-13 -.356E-13 0.114E-12   0.222E-15 -.111E-15 -.843E+01   -.583E-08 -.336E-08 -.541E+00
 
 
 POSITION                                       TOTAL-FORCE (eV/Angst)
 -----------------------------------------------------------------------------------
      1.27810      0.73791     15.00000        -0.058849     -0.033976      0.160047
      3.83429      0.73791     15.00000         0.058849     -0.033976      0.160047
      2.55619      2.95164     15.00000         0.000000      0.067952      0.160047
      5.11238      2.95164     15.00000         0.000000      0.000000      0.165495
      5.11238      1.47582     17.08712         0.000000     -0.016237     -0.011873
      2.55619      1.47582     17.08712         0.000000     -0.000000      0.073312
      6.39048      3.68954     17.08712         0.014062      0.008119     -0.011873
      3.83429      3.68954     17.08712        -0.014062      0.008119     -0.011873
      0.00000      0.00000     19.17424         0.000000      0.000000     -0.237247
      2.55619      0.00000     19.17424         0.000000      0.004884     -0.145606
      1.27810      2.21373     19.17424         0.004230     -0.002442     -0.145606
      3.83429      2.21373     19.17424        -0.004230     -0.002442     -0.145606
      0.00000      0.00000     20.68474         0.000000      0.000000     -0.009264
 -----------------------------------------------------------------------------------
    total drift:                               -0.000001     -0.000000     -0.000096


--------------------------------------------------------------------------------------------------------



  FREE ENERGIE OF THE ION-ELECTRON SYSTEM (eV)
  ---------------------------------------------------
  free  energy   TOTEN  =       -48.58118065 eV

  energy  without entropy=      -48.54318995  energy(sigma->0) =      -48.56218530
 
 d Force = 0.5401679E-03[-0.979E-04, 0.118E-02]  d Energy = 0.5896148E-03-0.494E-04
 d Force = 0.4570033E+01[ 0.457E+01, 0.457E+01]  d Ewald  = 0.4570019E+01 0.140E-04


--------------------------------------------------------------------------------------------------------


    POTLOK:  cpu time      0.0494: real time      0.0496


--------------------------------------------------------------------------------------------------------




--------------------------------------------------------------------------------------------------------


    WAVPRE:  cpu time      0.0045: real time      0.0212
    FEWALD:  cpu time      0.0003: real time      0.0003
    ORTHCH:  cpu time      0.2067: real time      0.2091
     LOOP+:  cpu time      7.3453: real time      7.4534


--------------------------------------- Iteration     10(   1)  ---------------------------------------


    POTLOK:  cpu time      0.0455: real time      0.0460
    SETDIJ:  cpu time      0.0031: real time      0.0034
     EDDAV:  cpu time      2.4938: real time      2.5183
       DOS:  cpu time      0.0003: real time      0.0003
    CHARGE:  cpu time      0.1125: real time      0.1131
    MIXING:  cpu time      0.0007: real time      0.0007
    --------------------------------------------
      LOOP:  cpu time      2.6560: real time      2.6819

 eigenvalue-minimisations  :  2176
 total energy-change (2. order) :-0.2048429E-05  (-0.3458623E-04)
 number of electron     133.0000045 magnetization      -0.0000808
 augmentation part       84.2728936 magnetization      -0.0000411

 Broyden mixing:
  rms(total) = 0.32366E-02    rms(broyden)= 0.32365E-02
  rms(prec ) = 0.33752E-02
  weight for this iteration     100.00

 Free energy of the ion-electron system (eV)
  ---------------------------------------------------
  alpha Z        PSCENC =       137.59429322
  Ewald energy   TEWEN  =    123746.61856489
  -Hartree energ DENC   =   -139160.24920932
  -exchange      EXHF   =         0.00000000
  -V(xc)+E(xc)   XCENC  =       536.25237949
  PAW double counting   =     15643.22423695   -16935.12667134
  entropy T*S    EENTRO =        -0.03815240
  eigenvalues    EBANDS =      -716.41313619
  atomic energy  EATOM  =     16704.21750749
  Solvation  Ecorr_sol  =         0.00000000
  ---------------------------------------------------
  free energy    TOTEN  =       -43.92018721 eV

  energy without entropy =      -43.88203481  energy(sigma->0) =      -43.90111101


--------------------------------------------------------------------------------------------------------




--------------------------------------- Iteration     10(   2)  ---------------------------------------


    POTLOK:  cpu time      0.0449: real time      0.0456
    SETDIJ:  cpu time      0.0040: real time      0.0040
     EDDAV:  cpu time      2.3833: real time      2.4083
       DOS:  cpu time      0.0004: real time      0.0003
    --------------------------------------------
      LOOP:  cpu time      2.4326: real time      2.4583

 eigenvalue-minimisations  :  1984
 total energy-change (2. order) :-0.2907698E-04  (-0.2888810E-04)
 number of electron     133.0000045 magnetization      -0.0000808
 augmentation part       84.2728936 magnetization      -0.0000411

 Free energy of the ion-electron system (eV)
  ---------------------------------------------------
  alpha Z        PSCENC =       137.59429322
  Ewald energy   TEWEN  =    123746.61856489
  -Hartree energ DENC   =   -139160.18251139
  -exchange      EXHF   =         0.00000000
  -V(xc)+E(xc)   XCENC  =       536.25139708
  PAW double counting   =     15642.90006848   -16934.79180606
  entropy T*S    EENTRO =        -0.03784752
  eigenvalues    EBANDS =      -716.48988249
  atomic energy  EATOM  =     16704.21750749
  Solvation  Ecorr_sol  =         0.00000000
  ---------------------------------------------------
  free energy    TOTEN  =       -43.92021629 eV

  energy without entropy =      -43.88236877  energy(sigma->0) =      -43.90129253


--------------------------------------------------------------------------------------------------------




 average (electrostatic) potential at core
  the test charge radii are     0.9430  0.5201
  (the norm of the test charge is              1.0000)
       1 -73.5703       2 -73.5703       3 -73.5703       4 -73.6111       5 -73.8327
       6 -73.8335       7 -73.8327       8 -73.8327       9 -74.0872      10 -73.5137
      11 -73.5137      12 -73.5137      13 -38.7881
 
 
 
 E-fermi :  -2.5612     XC(G=0):  -2.9631     alpha+bet : -2.4952

 Fermi energy:        -2.5612397931

 spin component 1

 k-point     1 :       0.0000    0.0000    0.0000
  band No.  band energies     occupation 
      1     -11.1662      1.00000
      2      -9.2807      1.00000
      3      -7.7581      1.00000
      4      -7.3802      1.00000
      5      -7.2655      1.00000
      6      -7.2655      1.00000
      7      -7.1202      1.00000
      8      -7.0666      1.00000
      9      -7.0665      1.00000
     10      -6.8089      1.00000
     11      -6.6947      1.00000
     12      -6.6947      1.00000
     13      -6.6465      1.00000
     14      -6.6465      1.00000
     15      -6.6430      1.00000
     16      -6.5017      1.00000
     17      -6.0605      1.00000
     18      -6.0605      1.00000
     19      -5.9156      1.00000
     20      -5.6392      1.00000
     21      -5.6392      1.00000
     22      -5.5954      1.00000
     23      -5.5458      1.00000
     24      -5.5032      1.00000
     25      -5.5032      1.00000
     26      -5.3341      1.00000
     27      -5.3341      1.00000
     28      -5.3125      1.00000
     29      -5.3035      1.00000
     30      -5.3035      1.00000
     31      -5.2670      1.00000
     32      -5.1989      1.00000
     33      -5.1989      1.00000
     34      -5.0438      1.00000
     35      -5.0438      1.00000
     36      -4.8479      1.00000
     37      -4.7964      1.00000
     38      -4.7964      1.00000
     39      -4.6562      1.00000
     40      -4.6562      1.00000
     41      -4.6203      1.00000
     42      -4.6175      1.00000
     43      -4.6175      1.00000
     44      -4.5668      1.00000
     45      -4.3790      1.00000
     46      -4.3790      1.00000
     47      -4.2521      1.00000
     48      -4.2521      1.00000
     49      -4.2029      1.00000
     50      -4.1959      1.00000
     51      -4.1605      1.00000
     52      -4.1605      1.00000
     53      -4.1470      1.00000
     54      -4.1470      1.00000
     55      -4.1247      1.00000
     56      -4.1247      1.00000
     57      -4.1156      1.00000
     58      -3.9898      1.00000
     59      -3.9898      1.00000
     60      -3.9066      1.00000
     61      -3.9066      1.00000
     62      -3.8981      1.00000
     63      -3.8515      1.00000
     64      -3.1885      1.00000
     65      -2.5033      0.10454
     66      -2.5032      0.10452
     67      -2.5025      0.10183
     68      -1.3993      0.00000
     69      -1.3993      0.00000
     70      -1.3712      0.00000
     71      -0.9841      0.00000
     72      -0.9659      0.00000
     73      -0.9659      0.00000
     74      -0.4965      0.00000
     75       1.6802      0.00000
     76       1.9490      0.00000
     77       1.9490      0.00000
     78       2.0191      0.00000
     79       2.1537      0.00000
     80       2.3132      0.00000
     81       2.6897      0.00000
     82       2.8724      0.00000
     83       3.1266      0.00000
     84       3.1266      0.00000
     85       3.5184      0.00000
     86       3.5875      0.00000
     87       3.8016      0.00000
     88       3.9027      0.00000
     89       3.9027      0.00000
     90       4.8128      0.00000
     91       4.9062      0.00000
     92       5.8247      0.00000
     93       6.3483      0.00000
     94       6.3548      0.00000
     95       6.3548      0.00000
     96       6.4507      0.00000

 k-point     2 :       0.2000    0.0000    0.0000
  band No.  band energies     occupation 
      1     -10.8505      1.00000
      2      -8.9893      1.00000
      3      -7.6084      1.00000
      4      -7.5070      1.00000
      5      -7.2846      1.00000
      6      -7.1899      1.00000
      7      -7.0979      1.00000
      8      -7.0168      1.00000
      9      -6.9604      1.00000
     10      -6.7687      1.00000
     11      -6.6499      1.00000
     12      -6.6200      1.00000
     13      -6.5658      1.00000
     14      -6.4900      1.00000
     15      -6.4828      1.00000
     16      -6.4034      1.00000
     17      -6.0493      1.00000
     18      -6.0235      1.00000
     19      -5.9082      1.00000
     20      -5.6475      1.00000
     21      -5.5873      1.00000
     22      -5.5868      1.00000
     23      -5.5658      1.00000
     24      -5.5394      1.00000
     25      -5.5117      1.00000
     26      -5.4319      1.00000
     27      -5.4023      1.00000
     28      -5.3968      1.00000
     29      -5.2830      1.00000
     30      -5.2766      1.00000
     31      -5.2392      1.00000
     32      -5.2284      1.00000
     33      -5.1805      1.00000
     34      -5.1432      1.00000
     35      -5.1092      1.00000
     36      -5.0940      1.00000
     37      -4.9037      1.00000
     38      -4.8619      1.00000
     39      -4.7762      1.00000
     40      -4.7182      1.00000
     41      -4.7093      1.00000
     42      -4.6608      1.00000
     43      -4.6536      1.00000
     44      -4.5969      1.00000
     45      -4.5691      1.00000
     46      -4.4587      1.00000
     47      -4.4417      1.00000
     48      -4.3879      1.00000
     49      -4.3751      1.00000
     50      -4.3077      1.00000
     51      -4.2993      1.00000
     52      -4.2901      1.00000
     53      -4.2608      1.00000
     54      -4.2449      1.00000
     55      -4.2243      1.00000
     56      -4.1903      1.00000
     57      -4.1434      1.00000
     58      -4.1174      1.00000
     59      -4.0718      1.00000
     60      -4.0679      1.00000
     61      -4.0261      1.00000
     62      -4.0007      1.00000
     63      -3.9516      1.00000
     64      -3.8401      1.00000
     65      -2.9909      1.00000
     66      -2.5977      0.79415
     67      -2.5507      0.40394
     68      -2.5004      0.09499
     69      -1.5272      0.00000
     70      -1.4808      0.00000
     71      -0.7306      0.00000
     72      -0.0444      0.00000
     73       0.0319      0.00000
     74       0.5654      0.00000
     75       1.9814      0.00000
     76       2.3064      0.00000
     77       2.3304      0.00000
     78       2.4356      0.00000
     79       2.6147      0.00000
     80       2.7189      0.00000
     81       2.9966      0.00000
     82       3.1542      0.00000
     83       3.1596      0.00000
     84       3.3152      0.00000
     85       3.8432      0.00000
     86       3.9456      0.00000
     87       4.1491      0.00000
     88       4.4774      0.00000
     89       4.6284      0.00000
     90       5.1301      0.00000
     91       5.2039      0.00000
     92       5.9808      0.00000
     93       6.0282      0.00000
     94       6.2455      0.00000
     95       6.5809      0.00000
     96       6.6668      0.00000

 k-point     3 :       0.4000    0.0000    0.0000
  band No.  band energies     occupation 
      1      -9.9469      1.00000
      2      -8.6610      1.00000
      3      -8.2001      1.00000
      4      -7.4050      1.00000
      5      -7.0945      1.00000
      6      -7.0196      1.00000
      7      -6.9267      1.00000
      8      -6.8680      1.00000
      9      -6.7378      1.00000
     10      -6.6356      1.00000
     11      -6.5640      1.00000
     12      -6.4156      1.00000
     13      -6.3572      1.00000
     14      -6.2302      1.00000
     15      -6.2170      1.00000
     16      -6.1411      1.00000
     17      -5.9696      1.00000
     18      -5.9475      1.00000
     19      -5.9055      1.00000
     20      -5.8873      1.00000
     21      -5.8154      1.00000
     22      -5.8065      1.00000
     23      -5.7159      1.00000
     24      -5.5905      1.00000
     25      -5.5694      1.00000
     26      -5.4532      1.00000
     27      -5.4369      1.00000
     28      -5.4308      1.00000
     29      -5.3870      1.00000
     30      -5.3348      1.00000
     31      -5.2972      1.00000
     32      -5.2557      1.00000
     33      -5.2065      1.00000
     34      -5.1984      1.00000
     35      -5.1599      1.00000
     36      -5.1415      1.00000
     37      -5.1353      1.00000
     38      -5.0733      1.00000
     39      -5.0602      1.00000
     40      -5.0427      1.00000
     41      -5.0399      1.00000
     42      -4.9777      1.00000
     43      -4.8036      1.00000
     44      -4.7917      1.00000
     45      -4.7682      1.00000
     46      -4.7462      1.00000
     47      -4.7146      1.00000
     48      -4.6648      1.00000
     49      -4.6024      1.00000
     50      -4.5657      1.00000
     51      -4.5400      1.00000
     52      -4.5175      1.00000
     53      -4.4211      1.00000
     54      -4.3962      1.00000
     55      -4.3927      1.00000
     56      -4.3769      1.00000
     57      -4.3442      1.00000
     58      -4.2632      1.00000
     59      -4.1771      1.00000
     60      -4.1393      1.00000
     61      -4.1219      1.00000
     62      -4.1156      1.00000
     63      -4.0567      1.00000
     64      -4.0429      1.00000
     65      -3.3255      1.00000
     66      -2.5854      0.70989
     67      -2.5459      0.36179
     68      -2.2027      0.00000
     69      -1.4954      0.00000
     70      -1.4117      0.00000
     71      -1.0122      0.00000
     72       0.2420      0.00000
     73       0.9520      0.00000
     74       1.1285      0.00000
     75       2.2702      0.00000
     76       2.9675      0.00000
     77       3.2662      0.00000
     78       3.3257      0.00000
     79       3.4469      0.00000
     80       3.5400      0.00000
     81       3.9245      0.00000
     82       4.0588      0.00000
     83       4.1256      0.00000
     84       4.3009      0.00000
     85       4.7609      0.00000
     86       4.8267      0.00000
     87       4.8728      0.00000
     88       5.0292      0.00000
     89       5.0652      0.00000
     90       5.2207      0.00000
     91       5.4200      0.00000
     92       5.5122      0.00000
     93       5.8712      0.00000
     94       6.0078      0.00000
     95       6.0441      0.00000
     96       6.0620      0.00000

 k-point     4 :       0.4000    0.2000    0.0000
  band No.  band energies     occupation 
      1     -10.2388      1.00000
      2      -8.4566      1.00000
      3      -7.8818      1.00000
      4      -7.8254      1.00000
      5      -7.1988      1.00000
      6      -7.0657      1.00000
      7      -7.0120      1.00000
      8      -6.8413      1.00000
      9      -6.7826      1.00000
     10      -6.6151      1.00000
     11      -6.5256      1.00000
     12      -6.4824      1.00000
     13      -6.4179      1.00000
     14      -6.2817      1.00000
     15      -6.2734      1.00000
     16      -6.2215      1.00000
     17      -6.0072      1.00000
     18      -5.9884      1.00000
     19      -5.9230      1.00000
     20      -5.8252      1.00000
     21      -5.7243      1.00000
     22      -5.6949      1.00000
     23      -5.6478      1.00000
     24      -5.6366      1.00000
     25      -5.5483      1.00000
     26      -5.4866      1.00000
     27      -5.4318      1.00000
     28      -5.3875      1.00000
     29      -5.3544      1.00000
     30      -5.3476      1.00000
     31      -5.3222      1.00000
     32      -5.3041      1.00000
     33      -5.2504      1.00000
     34      -5.1878      1.00000
     35      -5.1470      1.00000
     36      -5.0934      1.00000
     37      -5.0500      1.00000
     38      -5.0058      1.00000
     39      -4.9623      1.00000
     40      -4.9406      1.00000
     41      -4.8796      1.00000
     42      -4.8663      1.00000
     43      -4.8420      1.00000
     44      -4.7854      1.00000
     45      -4.7561      1.00000
     46      -4.7168      1.00000
     47      -4.6582      1.00000
     48      -4.6091      1.00000
     49      -4.5794      1.00000
     50      -4.5659      1.00000
     51      -4.4736      1.00000
     52      -4.4466      1.00000
     53      -4.3789      1.00000
     54      -4.3471      1.00000
     55      -4.2780      1.00000
     56      -4.2704      1.00000
     57      -4.2136      1.00000
     58      -4.2023      1.00000
     59      -4.1718      1.00000
     60      -4.1589      1.00000
     61      -4.1475      1.00000
     62      -4.1155      1.00000
     63      -3.8356      1.00000
     64      -3.8276      1.00000
     65      -3.6676      1.00000
     66      -3.1980      1.00000
     67      -3.1109      1.00000
     68      -1.9768      0.00000
     69      -0.8317      0.00000
     70      -0.7715      0.00000
     71      -0.6779      0.00000
     72      -0.1317      0.00000
     73       0.5602      0.00000
     74       0.9057      0.00000
     75       2.4399      0.00000
     76       2.4827      0.00000
     77       2.5427      0.00000
     78       2.9549      0.00000
     79       3.2099      0.00000
     80       3.3378      0.00000
     81       3.6184      0.00000
     82       3.7687      0.00000
     83       4.1713      0.00000
     84       4.4279      0.00000
     85       4.4809      0.00000
     86       4.4891      0.00000
     87       4.6437      0.00000
     88       5.0540      0.00000
     89       5.3150      0.00000
     90       5.6508      0.00000
     91       5.7477      0.00000
     92       5.7924      0.00000
     93       6.0189      0.00000
     94       6.1074      0.00000
     95       6.1924      0.00000
     96       6.2620      0.00000

 k-point     5 :      -0.4000    0.2000    0.0000
  band No.  band energies     occupation 
      1      -9.1517      1.00000
      2      -9.0859      1.00000
      3      -7.9865      1.00000
      4      -7.6703      1.00000
      5      -7.4705      1.00000
      6      -7.0203      1.00000
      7      -6.7494      1.00000
      8      -6.5534      1.00000
      9      -6.5204      1.00000
     10      -6.5059      1.00000
     11      -6.4917      1.00000
     12      -6.2777      1.00000
     13      -6.2471      1.00000
     14      -6.2282      1.00000
     15      -6.1970      1.00000
     16      -6.0686      1.00000
     17      -6.0324      1.00000
     18      -6.0045      1.00000
     19      -5.9775      1.00000
     20      -5.9103      1.00000
     21      -5.8696      1.00000
     22      -5.7819      1.00000
     23      -5.7229      1.00000
     24      -5.6628      1.00000
     25      -5.6267      1.00000
     26      -5.6059      1.00000
     27      -5.5757      1.00000
     28      -5.5483      1.00000
     29      -5.5274      1.00000
     30      -5.4726      1.00000
     31      -5.4132      1.00000
     32      -5.3642      1.00000
     33      -5.3179      1.00000
     34      -5.2757      1.00000
     35      -5.2444      1.00000
     36      -5.2249      1.00000
     37      -5.1709      1.00000
     38      -5.1628      1.00000
     39      -5.1354      1.00000
     40      -5.0607      1.00000
     41      -5.0236      1.00000
     42      -4.9169      1.00000
     43      -4.8396      1.00000
     44      -4.7894      1.00000
     45      -4.7377      1.00000
     46      -4.7107      1.00000
     47      -4.6779      1.00000
     48      -4.6482      1.00000
     49      -4.6325      1.00000
     50      -4.5640      1.00000
     51      -4.5005      1.00000
     52      -4.4671      1.00000
     53      -4.4180      1.00000
     54      -4.4109      1.00000
     55      -4.3585      1.00000
     56      -4.3373      1.00000
     57      -4.3285      1.00000
     58      -4.2390      1.00000
     59      -4.2083      1.00000
     60      -4.2006      1.00000
     61      -4.1784      1.00000
     62      -4.1404      1.00000
     63      -4.1248      1.00000
     64      -4.0696      1.00000
     65      -3.7631      1.00000
     66      -3.3823      1.00000
     67      -2.8614      0.99999
     68      -2.0785      0.00000
     69      -1.2272      0.00000
     70      -0.4979      0.00000
     71      -0.2670      0.00000
     72       0.5959      0.00000
     73       0.9112      0.00000
     74       1.7358      0.00000
     75       2.2394      0.00000
     76       2.4080      0.00000
     77       2.9615      0.00000
     78       3.6156      0.00000
     79       3.6887      0.00000
     80       3.9871      0.00000
     81       4.1499      0.00000
     82       4.2460      0.00000
     83       4.3009      0.00000
     84       4.4458      0.00000
     85       4.4621      0.00000
     86       4.8100      0.00000
     87       4.8580      0.00000
     88       4.9295      0.00000
     89       4.9422      0.00000
     90       4.9479      0.00000
     91       5.5404      0.00000
     92       5.6674      0.00000
     93       5.7312      0.00000
     94       5.7582      0.00000
     95       5.8260      0.00000
     96       5.9227      0.00000
 Fermi energy:        -2.5612397931

 spin component 2

 k-point     1 :       0.0000    0.0000    0.0000
  band No.  band energies     occupation 
      1     -11.1663      1.00000
      2      -9.2808      1.00000
      3      -7.7581      1.00000
      4      -7.3802      1.00000
      5      -7.2655      1.00000
      6      -7.2655      1.00000
      7      -7.1202      1.00000
      8      -7.0666      1.00000
      9      -7.0666      1.00000
     10      -6.8089      1.00000
     11      -6.6947      1.00000
     12      -6.6947      1.00000
     13      -6.6465      1.00000
     14      -6.6465      1.00000
     15      -6.6430      1.00000
     16      -6.5017      1.00000
     17      -6.0605      1.00000
     18      -6.0605      1.00000
     19      -5.9156      1.00000
     20      -5.6392      1.00000
     21      -5.6392      1.00000
     22      -5.5954      1.00000
     23      -5.5458      1.00000
     24      -5.5032      1.00000
     25      -5.5032      1.00000
     26      -5.3341      1.00000
     27      -5.3341      1.00000
     28      -5.3125      1.00000
     29      -5.3035      1.00000
     30      -5.3035      1.00000
     31      -5.2670      1.00000
     32      -5.1989      1.00000
     33      -5.1989      1.00000
     34      -5.0439      1.00000
     35      -5.0439      1.00000
     36      -4.8479      1.00000
     37      -4.7964      1.00000
     38      -4.7964      1.00000
     39      -4.6562      1.00000
     40      -4.6562      1.00000
     41      -4.6203      1.00000
     42      -4.6175      1.00000
     43      -4.6175      1.00000
     44      -4.5668      1.00000
     45      -4.3790      1.00000
     46      -4.3790      1.00000
     47      -4.2521      1.00000
     48      -4.2521      1.00000
     49      -4.2029      1.00000
     50      -4.1959      1.00000
     51      -4.1605      1.00000
     52      -4.1605      1.00000
     53      -4.1470      1.00000
     54      -4.1470      1.00000
     55      -4.1247      1.00000
     56      -4.1247      1.00000
     57      -4.1156      1.00000
     58      -3.9898      1.00000
     59      -3.9898      1.00000
     60      -3.9066      1.00000
     61      -3.9066      1.00000
     62      -3.8981      1.00000
     63      -3.8515      1.00000
     64      -3.1886      1.00000
     65      -2.5033      0.10457
     66      -2.5033      0.10454
     67      -2.5025      0.10186
     68      -1.3993      0.00000
     69      -1.3993      0.00000
     70      -1.3712      0.00000
     71      -0.9841      0.00000
     72      -0.9659      0.00000
     73      -0.9659      0.00000
     74      -0.4965      0.00000
     75       1.6794      0.00000
     76       1.9490      0.00000
     77       1.9490      0.00000
     78       2.0169      0.00000
     79       2.1538      0.00000
     80       2.3146      0.00000
     81       2.6910      0.00000
     82       2.8727      0.00000
     83       3.1266      0.00000
     84       3.1266      0.00000
     85       3.5181      0.00000
     86       3.5871      0.00000
     87       3.8011      0.00000
     88       3.9027      0.00000
     89       3.9027      0.00000
     90       4.8123      0.00000
     91       4.9067      0.00000
     92       5.8247      0.00000
     93       6.3482      0.00000
     94       6.3548      0.00000
     95       6.3548      0.00000
     96       6.4505      0.00000

 k-point     2 :       0.2000    0.0000    0.0000
  band No.  band energies     occupation 
      1     -10.8506      1.00000
      2      -8.9893      1.00000
      3      -7.6084      1.00000
      4      -7.5070      1.00000
      5      -7.2846      1.00000
      6      -7.1899      1.00000
      7      -7.0979      1.00000
      8      -7.0168      1.00000
      9      -6.9604      1.00000
     10      -6.7687      1.00000
     11      -6.6499      1.00000
     12      -6.6200      1.00000
     13      -6.5658      1.00000
     14      -6.4900      1.00000
     15      -6.4828      1.00000
     16      -6.4034      1.00000
     17      -6.0493      1.00000
     18      -6.0235      1.00000
     19      -5.9082      1.00000
     20      -5.6475      1.00000
     21      -5.5873      1.00000
     22      -5.5868      1.00000
     23      -5.5658      1.00000
     24      -5.5394      1.00000
     25      -5.5117      1.00000
     26      -5.4319      1.00000
     27      -5.4023      1.00000
     28      -5.3968      1.00000
     29      -5.2830      1.00000
     30      -5.2766      1.00000
     31      -5.2392      1.00000
     32      -5.2284      1.00000
     33      -5.1805      1.00000
     34      -5.1433      1.00000
     35      -5.1092      1.00000
     36      -5.0940      1.00000
     37      -4.9037      1.00000
     38      -4.8619      1.00000
     39      -4.7762      1.00000
     40      -4.7182      1.00000
     41      -4.7093      1.00000
     42      -4.6608      1.00000
     43      -4.6537      1.00000
     44      -4.5969      1.00000
     45      -4.5691      1.00000
     46      -4.4587      1.00000
     47      -4.4417      1.00000
     48      -4.3879      1.00000
     49      -4.3751      1.00000
     50      -4.3077      1.00000
     51      -4.2993      1.00000
     52      -4.2901      1.00000
     53      -4.2608      1.00000
     54      -4.2449      1.00000
     55      -4.2243      1.00000
     56      -4.1903      1.00000
     57      -4.1434      1.00000
     58      -4.1174      1.00000
     59      -4.0718      1.00000
     60      -4.0679      1.00000
     61      -4.0261      1.00000
     62      -4.0007      1.00000
     63      -3.9516      1.00000
     64      -3.8401      1.00000
     65      -2.9909      1.00000
     66      -2.5977      0.79419
     67      -2.5507      0.40399
     68      -2.5004      0.09502
     69      -1.5272      0.00000
     70      -1.4808      0.00000
     71      -0.7306      0.00000
     72      -0.0444      0.00000
     73       0.0319      0.00000
     74       0.5653      0.00000
     75       1.9805      0.00000
     76       2.3064      0.00000
     77       2.3284      0.00000
     78       2.4357      0.00000
     79       2.6161      0.00000
     80       2.7190      0.00000
     81       2.9979      0.00000
     82       3.1542      0.00000
     83       3.1597      0.00000
     84       3.3152      0.00000
     85       3.8428      0.00000
     86       3.9454      0.00000
     87       4.1486      0.00000
     88       4.4774      0.00000
     89       4.6284      0.00000
     90       5.1297      0.00000
     91       5.2043      0.00000
     92       5.9808      0.00000
     93       6.0281      0.00000
     94       6.2452      0.00000
     95       6.5805      0.00000
     96       6.6671      0.00000

 k-point     3 :       0.4000    0.0000    0.0000
  band No.  band energies     occupation 
      1      -9.9470      1.00000
      2      -8.6610      1.00000
      3      -8.2001      1.00000
      4      -7.4050      1.00000
      5      -7.0945      1.00000
      6      -7.0196      1.00000
      7      -6.9267      1.00000
      8      -6.8680      1.00000
      9      -6.7378      1.00000
     10      -6.6356      1.00000
     11      -6.5640      1.00000
     12      -6.4156      1.00000
     13      -6.3572      1.00000
     14      -6.2302      1.00000
     15      -6.2170      1.00000
     16      -6.1411      1.00000
     17      -5.9696      1.00000
     18      -5.9475      1.00000
     19      -5.9055      1.00000
     20      -5.8873      1.00000
     21      -5.8154      1.00000
     22      -5.8065      1.00000
     23      -5.7159      1.00000
     24      -5.5906      1.00000
     25      -5.5694      1.00000
     26      -5.4532      1.00000
     27      -5.4369      1.00000
     28      -5.4308      1.00000
     29      -5.3870      1.00000
     30      -5.3348      1.00000
     31      -5.2972      1.00000
     32      -5.2557      1.00000
     33      -5.2065      1.00000
     34      -5.1985      1.00000
     35      -5.1599      1.00000
     36      -5.1415      1.00000
     37      -5.1353      1.00000
     38      -5.0733      1.00000
     39      -5.0602      1.00000
     40      -5.0427      1.00000
     41      -5.0399      1.00000
     42      -4.9777      1.00000
     43      -4.8036      1.00000
     44      -4.7917      1.00000
     45      -4.7682      1.00000
     46      -4.7462      1.00000
     47      -4.7146      1.00000
     48      -4.6649      1.00000
     49      -4.6024      1.00000
     50      -4.5657      1.00000
     51      -4.5400      1.00000
     52      -4.5175      1.00000
     53      -4.4211      1.00000
     54      -4.3962      1.00000
     55      -4.3927      1.00000
     56      -4.3769      1.00000
     57      -4.3442      1.00000
     58      -4.2632      1.00000
     59      -4.1771      1.00000
     60      -4.1393      1.00000
     61      -4.1219      1.00000
     62      -4.1156      1.00000
     63      -4.0567      1.00000
     64      -4.0429      1.00000
     65      -3.3255      1.00000
     66      -2.5854      0.70993
     67      -2.5459      0.36183
     68      -2.2027      0.00000
     69      -1.4954      0.00000
     70      -1.4117      0.00000
     71      -1.0122      0.00000
     72       0.2420      0.00000
     73       0.9520      0.00000
     74       1.1285      0.00000
     75       2.2701      0.00000
     76       2.9666      0.00000
     77       3.2643      0.00000
     78       3.3257      0.00000
     79       3.4472      0.00000
     80       3.5412      0.00000
     81       3.9257      0.00000
     82       4.0586      0.00000
     83       4.1252      0.00000
     84       4.3009      0.00000
     85       4.7597      0.00000
     86       4.8255      0.00000
     87       4.8725      0.00000
     88       5.0293      0.00000
     89       5.0661      0.00000
     90       5.2207      0.00000
     91       5.4211      0.00000
     92       5.5118      0.00000
     93       5.8712      0.00000
     94       6.0078      0.00000
     95       6.0437      0.00000
     96       6.0624      0.00000

 k-point     4 :       0.4000    0.2000    0.0000
  band No.  band energies     occupation 
      1     -10.2388      1.00000
      2      -8.4566      1.00000
      3      -7.8818      1.00000
      4      -7.8254      1.00000
      5      -7.1988      1.00000
      6      -7.0657      1.00000
      7      -7.0121      1.00000
      8      -6.8413      1.00000
      9      -6.7826      1.00000
     10      -6.6151      1.00000
     11      -6.5256      1.00000
     12      -6.4824      1.00000
     13      -6.4179      1.00000
     14      -6.2817      1.00000
     15      -6.2734      1.00000
     16      -6.2215      1.00000
     17      -6.0072      1.00000
     18      -5.9884      1.00000
     19      -5.9230      1.00000
     20      -5.8252      1.00000
     21      -5.7244      1.00000
     22      -5.6949      1.00000
     23      -5.6478      1.00000
     24      -5.6366      1.00000
     25      -5.5483      1.00000
     26      -5.4866      1.00000
     27      -5.4318      1.00000
     28      -5.3875      1.00000
     29      -5.3544      1.00000
     30      -5.3476      1.00000
     31      -5.3222      1.00000
     32      -5.3041      1.00000
     33      -5.2504      1.00000
     34      -5.1878      1.00000
     35      -5.1470      1.00000
     36      -5.0934      1.00000
     37      -5.0500      1.00000
     38      -5.0058      1.00000
     39      -4.9623      1.00000
     40      -4.9406      1.00000
     41      -4.8796      1.00000
     42      -4.8663      1.00000
     43      -4.8420      1.00000
     44      -4.7854      1.00000
     45      -4.7561      1.00000
     46      -4.7168      1.00000
     47      -4.6582      1.00000
     48      -4.6091      1.00000
     49      -4.5794      1.00000
     50      -4.5659      1.00000
     51      -4.4736      1.00000
     52      -4.4466      1.00000
     53      -4.3789      1.00000
     54      -4.3471      1.00000
     55      -4.2780      1.00000
     56      -4.2704      1.00000
     57      -4.2136      1.00000
     58      -4.2023      1.00000
     59      -4.1718      1.00000
     60      -4.1589      1.00000
     61      -4.1475      1.00000
     62      -4.1155      1.00000
     63      -3.8356      1.00000
     64      -3.8276      1.00000
     65      -3.6676      1.00000
     66      -3.1981      1.00000
     67      -3.1109      1.00000
     68      -1.9768      0.00000
     69      -0.8317      0.00000
     70      -0.7715      0.00000
     71      -0.6779      0.00000
     72      -0.1317      0.00000
     73       0.5602      0.00000
     74       0.9056      0.00000
     75       2.4398      0.00000
     76       2.4821      0.00000
     77       2.5427      0.00000
     78       2.9528      0.00000
     79       3.2111      0.00000
     80       3.3379      0.00000
     81       3.6195      0.00000
     82       3.7687      0.00000
     83       4.1713      0.00000
     84       4.4279      0.00000
     85       4.4803      0.00000
     86       4.4891      0.00000
     87       4.6435      0.00000
     88       5.0537      0.00000
     89       5.3146      0.00000
     90       5.6507      0.00000
     91       5.7475      0.00000
     92       5.7924      0.00000
     93       6.0178      0.00000
     94       6.1053      0.00000
     95       6.1912      0.00000
     96       6.2630      0.00000

 k-point     5 :      -0.4000    0.2000    0.0000
  band No.  band energies     occupation 
      1      -9.1517      1.00000
      2      -9.0859      1.00000
      3      -7.9865      1.00000
      4      -7.6703      1.00000
      5      -7.4705      1.00000
      6      -7.0203      1.00000
      7      -6.7494      1.00000
      8      -6.5534      1.00000
      9      -6.5204      1.00000
     10      -6.5059      1.00000
     11      -6.4917      1.00000
     12      -6.2777      1.00000
     13      -6.2471      1.00000
     14      -6.2282      1.00000
     15      -6.1970      1.00000
     16      -6.0686      1.00000
     17      -6.0324      1.00000
     18      -6.0045      1.00000
     19      -5.9775      1.00000
     20      -5.9103      1.00000
     21      -5.8696      1.00000
     22      -5.7819      1.00000
     23      -5.7229      1.00000
     24      -5.6628      1.00000
     25      -5.6267      1.00000
     26      -5.6060      1.00000
     27      -5.5757      1.00000
     28      -5.5483      1.00000
     29      -5.5274      1.00000
     30      -5.4726      1.00000
     31      -5.4132      1.00000
     32      -5.3642      1.00000
     33      -5.3179      1.00000
     34      -5.2757      1.00000
     35      -5.2444      1.00000
     36      -5.2249      1.00000
     37      -5.1709      1.00000
     38      -5.1628      1.00000
     39      -5.1354      1.00000
     40      -5.0607      1.00000
     41      -5.0236      1.00000
     42      -4.9169      1.00000
     43      -4.8396      1.00000
     44      -4.7894      1.00000
     45      -4.7377      1.00000
     46      -4.7107      1.00000
     47      -4.6779      1.00000
     48      -4.6482      1.00000
     49      -4.6325      1.00000
     50      -4.5640      1.00000
     51      -4.5005      1.00000
     52      -4.4671      1.00000
     53      -4.4180      1.00000
     54      -4.4109      1.00000
     55      -4.3585      1.00000
     56      -4.3373      1.00000
     57      -4.3285      1.00000
     58      -4.2390      1.00000
     59      -4.2083      1.00000
     60      -4.2006      1.00000
     61      -4.1784      1.00000
     62      -4.1404      1.00000
     63      -4.1248      1.00000
     64      -4.0696      1.00000
     65      -3.7631      1.00000
     66      -3.3823      1.00000
     67      -2.8614      0.99999
     68      -2.0785      0.00000
     69      -1.2272      0.00000
     70      -0.4979      0.00000
     71      -0.2670      0.00000
     72       0.5959      0.00000
     73       0.9112      0.00000
     74       1.7358      0.00000
     75       2.2394      0.00000
     76       2.4080      0.00000
     77       2.9614      0.00000
     78       3.6148      0.00000
     79       3.6886      0.00000
     80       3.9869      0.00000
     81       4.1476      0.00000
     82       4.2443      0.00000
     83       4.3009      0.00000
     84       4.4471      0.00000
     85       4.4633      0.00000
     86       4.8112      0.00000
     87       4.8591      0.00000
     88       4.9293      0.00000
     89       4.9417      0.00000
     90       4.9475      0.00000
     91       5.5408      0.00000
     92       5.6662      0.00000
     93       5.7307      0.00000
     94       5.7567      0.00000
     95       5.8259      0.00000
     96       5.9225      0.00000


--------------------------------------------------------------------------------------------------------


 soft charge-density along one line, spin component           1
         0         1         2         3         4         5         6         7         8         9
 total charge-density along one line
 
 soft charge-density along one line, spin component           2
         0         1         2         3         4         5         6         7         8         9
 total charge-density along one line
 
 pseudopotential strength for first ion, spin component:           1
-10.091  -0.003  -0.005  -0.005   0.000   0.712   0.002   0.003
 -0.003 -10.059  -0.002   0.005  -0.002   0.002   0.686   0.002
 -0.005  -0.002 -10.053  -0.004  -0.003   0.003   0.002   0.679
 -0.005   0.005  -0.004 -10.054  -0.003   0.004  -0.003   0.003
  0.000  -0.002  -0.003  -0.003 -10.091  -0.000   0.001   0.002
  0.712   0.002   0.003   0.004  -0.000   6.488  -0.002  -0.002
  0.002   0.686   0.002  -0.003   0.001  -0.002   6.507  -0.001
  0.003   0.002   0.679   0.003   0.002  -0.002  -0.001   6.512
  0.004  -0.003   0.003   0.682   0.002  -0.003   0.002  -0.002
 -0.000   0.001   0.002   0.002   0.712   0.000  -0.001  -0.001
 -0.001   0.001  -0.007   0.001  -0.000   0.000  -0.000   0.002
 -0.001   0.001  -0.014   0.002  -0.001   0.001  -0.000   0.004
  0.002  -0.008  -0.001   0.000  -0.001  -0.001   0.009   0.000
  0.000   0.001  -0.008   0.002   0.000  -0.000  -0.001   0.008
  0.001   0.000  -0.001  -0.008   0.002  -0.001  -0.000   0.001
  0.003  -0.010  -0.001   0.000  -0.001  -0.002   0.011   0.001
  0.000   0.002  -0.008   0.003   0.000  -0.000  -0.001   0.010
  0.002   0.000  -0.002  -0.009   0.003  -0.001  -0.000   0.001
 pseudopotential strength for first ion, spin component:           2
-10.091  -0.003  -0.005  -0.005   0.000   0.712   0.002   0.003
 -0.003 -10.059  -0.002   0.005  -0.002   0.002   0.686   0.002
 -0.005  -0.002 -10.053  -0.004  -0.003   0.003   0.002   0.679
 -0.005   0.005  -0.004 -10.054  -0.003   0.004  -0.003   0.003
  0.000  -0.002  -0.003  -0.003 -10.091  -0.000   0.001   0.002
  0.712   0.002   0.003   0.004  -0.000   6.488  -0.002  -0.002
  0.002   0.686   0.002  -0.003   0.001  -0.002   6.507  -0.001
  0.003   0.002   0.679   0.003   0.002  -0.002  -0.001   6.512
  0.004  -0.003   0.003   0.682   0.002  -0.003   0.002  -0.002
 -0.000   0.001   0.002   0.002   0.712   0.000  -0.001  -0.001
 -0.001   0.001  -0.007   0.001  -0.000   0.000  -0.000   0.002
 -0.001   0.001  -0.014   0.002  -0.001   0.001  -0.000   0.004
  0.002  -0.008  -0.001   0.000  -0.001  -0.001   0.009   0.000
  0.000   0.001  -0.008   0.002   0.000  -0.000  -0.001   0.008
  0.001   0.000  -0.001  -0.008   0.002  -0.001  -0.000   0.001
  0.003  -0.010  -0.001   0.000  -0.001  -0.002   0.011   0.001
  0.000   0.002  -0.008   0.003   0.000  -0.000  -0.001   0.010
  0.002   0.000  -0.002  -0.009   0.003  -0.001  -0.000   0.001
 total augmentation occupancy for first ion, spin component:           1
  1.908  -0.001   0.000  -0.005   0.001  -0.016   0.000   0.000   0.004  -0.000  -0.004  -0.001  -0.001   0.002   0.005   0.001
 -0.001   1.923  -0.003   0.002  -0.003   0.000  -0.032   0.001  -0.000   0.004  -0.007  -0.000   0.006   0.002   0.002  -0.008
  0.000  -0.003   1.924  -0.005   0.000   0.000   0.001  -0.028   0.001   0.000   0.003   0.014  -0.001   0.051  -0.001  -0.000
 -0.005   0.002  -0.005   1.925  -0.001   0.004  -0.000   0.001  -0.033   0.000  -0.011  -0.000   0.002   0.003   0.008   0.000
  0.001  -0.003   0.000  -0.001   1.907  -0.000   0.004   0.000   0.000  -0.016  -0.002  -0.001   0.006   0.001  -0.001  -0.001
 -0.016   0.000   0.000   0.004  -0.000   0.014  -0.000   0.000   0.000   0.000   0.000   0.000   0.000  -0.000   0.003  -0.000
  0.000  -0.032   0.001  -0.000   0.004  -0.000   0.010  -0.000   0.000   0.000   0.002   0.000   0.017  -0.000  -0.001  -0.001
  0.000   0.001  -0.028   0.001   0.000   0.000  -0.000   0.013  -0.000   0.000  -0.044   0.002   0.000   0.022   0.001   0.000
  0.004  -0.000   0.001  -0.033   0.000   0.000   0.000  -0.000   0.010  -0.000   0.003   0.000  -0.001  -0.001   0.017   0.000
 -0.000   0.004   0.000   0.000  -0.016   0.000   0.000   0.000  -0.000   0.014   0.000   0.000   0.003  -0.000   0.000  -0.000
 -0.004  -0.007   0.003  -0.011  -0.002   0.000   0.002  -0.044   0.003   0.000   1.711  -0.134  -0.002   0.127  -0.004   0.000
 -0.001  -0.000   0.014  -0.000  -0.001   0.000   0.000   0.002   0.000   0.000  -0.134   0.017  -0.000  -0.023  -0.001  -0.000
 -0.001   0.006  -0.001   0.002   0.006   0.000   0.017   0.000  -0.001   0.003  -0.002  -0.000   0.209   0.002   0.003  -0.013
  0.002   0.002   0.051   0.003   0.001  -0.000  -0.000   0.022  -0.001  -0.000   0.127  -0.023   0.002   0.124   0.004  -0.000
  0.005   0.002  -0.001   0.008  -0.001   0.003  -0.001   0.001   0.017   0.000  -0.004  -0.001   0.003   0.004   0.212  -0.000
  0.001  -0.008  -0.000   0.000  -0.001  -0.000  -0.001   0.000   0.000  -0.000   0.000  -0.000  -0.013  -0.000  -0.000   0.001
  0.000   0.001  -0.013   0.001   0.000   0.000  -0.000  -0.001  -0.000   0.000  -0.018   0.002  -0.000  -0.008  -0.000  -0.000
  0.000   0.000  -0.001  -0.008   0.001  -0.000   0.000   0.000  -0.001  -0.000   0.000  -0.000  -0.000  -0.000  -0.013  -0.000
 total augmentation occupancy for first ion, spin component:           2
 -0.000  -0.000   0.000   0.000   0.000   0.000  -0.000   0.000  -0.000  -0.000   0.000  -0.000   0.000  -0.000  -0.000  -0.000
 -0.000  -0.000   0.000  -0.000   0.000   0.000  -0.000  -0.000  -0.000  -0.000  -0.000   0.000   0.000  -0.000   0.000  -0.000
  0.000   0.000  -0.000   0.000   0.000  -0.000   0.000   0.000   0.000  -0.000   0.000  -0.000  -0.000   0.000  -0.000  -0.000
  0.000  -0.000   0.000  -0.000  -0.000   0.000  -0.000  -0.000  -0.000   0.000  -0.000   0.000   0.000  -0.000   0.000  -0.000
  0.000   0.000   0.000  -0.000  -0.000  -0.000  -0.000   0.000  -0.000   0.000   0.000  -0.000  -0.000  -0.000   0.000   0.000
  0.000   0.000  -0.000   0.000  -0.000  -0.000   0.000   0.000  -0.000   0.000   0.000   0.000  -0.000   0.000   0.000   0.000
 -0.000  -0.000   0.000  -0.000  -0.000   0.000  -0.000  -0.000   0.000  -0.000   0.000   0.000  -0.000  -0.000   0.000   0.000
  0.000  -0.000   0.000  -0.000   0.000   0.000  -0.000  -0.000  -0.000   0.000  -0.000   0.000  -0.000  -0.000  -0.000   0.000
 -0.000  -0.000   0.000  -0.000  -0.000  -0.000   0.000  -0.000  -0.000   0.000   0.000   0.000   0.000  -0.000  -0.000  -0.000
 -0.000  -0.000  -0.000   0.000   0.000   0.000  -0.000   0.000   0.000  -0.000   0.000   0.000   0.000   0.000  -0.000  -0.000
  0.000  -0.000   0.000  -0.000   0.000   0.000   0.000  -0.000   0.000   0.000  -0.000  -0.000  -0.000   0.000  -0.000   0.000
 -0.000   0.000  -0.000   0.000  -0.000   0.000   0.000   0.000   0.000   0.000  -0.000  -0.000   0.000   0.000   0.000  -0.000
  0.000   0.000  -0.000   0.000  -0.000  -0.000  -0.000  -0.000   0.000   0.000  -0.000   0.000  -0.000   0.000   0.000   0.000
 -0.000  -0.000   0.000  -0.000  -0.000   0.000  -0.000  -0.000  -0.000   0.000   0.000   0.000   0.000  -0.000   0.000   0.000
 -0.000   0.000  -0.000   0.000   0.000   0.000   0.000  -0.000  -0.000  -0.000  -0.000   0.000   0.000   0.000  -0.000  -0.000
 -0.000  -0.000  -0.000  -0.000   0.000   0.000   0.000   0.000  -0.000  -0.000   0.000  -0.000   0.000   0.000  -0.000  -0.000
  0.000  -0.000   0.000  -0.000   0.000  -0.000   0.000  -0.000   0.000  -0.000  -0.000  -0.000  -0.000  -0.000  -0.000   0.000
 -0.000  -0.000  -0.000  -0.000  -0.000   0.000  -0.000   0.000   0.000   0.000   0.000  -0.000  -0.000   0.000   0.000  -0.000


------------------------ aborting loop because EDIFF is reached ----------------------------------------


    CHARGE:  cpu time      0.1162: real time      0.1173
    FORLOC:  cpu time      0.0022: real time      0.0023
    FORNL :  cpu time      0.2470: real time      0.2492
    STRESS:  cpu time      1.5435: real time      1.5562
    FORCOR:  cpu time      0.0392: real time      0.0394
    FORHAR:  cpu time      0.0046: real time      0.0046
    MIXING:  cpu time      0.0010: real time      0.0010
    OFIELD:  cpu time      0.0000: real time      0.0000

 ---------------------------------------------------------------------------------------------

         DFTD3 V3.0 Rev 1        
 Edisp (eV)   -4.66100

 E6    (eV) :    -2.5751
 E8    (eV) :    -2.0859
 % E8        : 44.75
    FORVDW:  cpu time      0.0102: real time      0.0112

  FORCE on cell =-STRESS in cart. coord.  units (eV):
  Direction    XX          YY          ZZ          XY          YZ          ZX
  --------------------------------------------------------------------------------------
  Alpha Z   137.59429   137.59429   137.59429
  Ewald  132499.86051132499.86051************    -0.00000    -0.00000    -0.00000
  Hartree136393.21195136393.21195************     0.00000    -0.00000    -0.00000
  E(xc)    -772.74047  -772.74033  -774.54971    -0.00012     0.00000     0.00000
  Local  ************************273552.60081     0.00203    -0.00000    -0.00000
  n-local  -254.37963  -267.61051  -265.60905    -7.79075    -0.05791     0.00232
  augment  1134.53188  1134.53398  1139.18236    -0.00182     0.00002     0.00003
  Kinetic  1079.83980  1080.85597  1088.68672     0.71419    -0.87746     1.06301
  Fock        0.00000     0.00000     0.00000     0.00000     0.00000     0.00000
  vdW        -4.92573    -4.92573    -2.45183     0.00000    -0.00000    -0.00000
  -------------------------------------------------------------------------------------
  Total      -7.48442    -7.48442    -2.62622    -0.00000    -0.00000    -0.00000
  in kB     -15.50217   -15.50217    -5.43959    -0.00000    -0.00000    -0.00000
  external pressure =      -12.15 kB  Pullay stress =        0.00 kB


 VOLUME and BASIS-vectors are now :
 -----------------------------------------------------------------------------
  energy-cutoff  :      600.00
  volume of cell :      773.53
      direct lattice vectors                 reciprocal lattice vectors
     5.112382028  0.000000000  0.000000000     0.195603536 -0.112931754  0.000000000
     2.556191014  4.427452710  0.000000000     0.000000000  0.225863508  0.000000000
     0.000000000  0.000000000 34.174242446     0.000000000  0.000000000  0.029261804

  length of vectors
     5.112382028  5.112382028 34.174242446     0.225863508  0.225863508  0.029261804


 FORCES acting on ions
    electron-ion (+dipol)            ewald-force                    non-local-force                 convergence-correction
 -----------------------------------------------------------------------------------------------
   -.365E+00 -.211E+00 0.318E+04   0.414E-01 0.239E-01 -.317E+04   0.285E+00 0.164E+00 -.168E+01   -.198E-01 -.114E-01 -.204E+00
   0.365E+00 -.211E+00 0.318E+04   -.414E-01 0.239E-01 -.317E+04   -.285E+00 0.164E+00 -.168E+01   0.198E-01 -.114E-01 -.204E+00
   0.274E-05 0.422E+00 0.318E+04   -.417E-08 -.478E-01 -.317E+04   -.832E-17 -.329E+00 -.168E+01   -.650E-08 0.228E-01 -.204E+00
   0.255E-05 0.147E-05 0.318E+04   0.502E-08 0.461E-08 -.317E+04   0.112E-16 -.183E-17 -.354E+01   -.899E-10 -.520E-10 -.181E+00
   -.257E-05 -.181E+01 0.360E+02   -.579E-08 0.924E+00 -.350E+02   -.752E-17 0.890E+00 -.764E+00   -.256E-07 -.216E-01 -.265E+00
   -.229E-05 -.132E-05 0.344E+02   0.456E-08 -.819E-08 -.339E+02   -.276E-17 -.876E-18 -.104E+00   0.193E-09 0.112E-09 -.280E+00
   0.157E+01 0.904E+00 0.360E+02   -.800E+00 -.462E+00 -.350E+02   -.771E+00 -.445E+00 -.764E+00   0.187E-01 0.108E-01 -.265E+00
   -.157E+01 0.904E+00 0.360E+02   0.800E+00 -.462E+00 -.350E+02   0.771E+00 -.445E+00 -.764E+00   -.187E-01 0.108E-01 -.265E+00
   -.814E-06 -.470E-06 -.306E+04   -.618E-08 -.249E-08 0.306E+04   -.560E-17 0.508E-17 -.622E+01   0.464E-09 0.268E-09 -.676E-01
   -.445E-06 -.344E-02 -.312E+04   0.517E-08 -.823E-08 0.311E+04   -.204E-18 0.326E-01 0.360E+01   0.461E-08 -.244E-01 -.102E+00
   -.298E-02 0.172E-02 -.312E+04   -.491E-08 0.813E-08 0.311E+04   0.282E-01 -.163E-01 0.360E+01   -.212E-01 0.122E-01 -.102E+00
   0.298E-02 0.172E-02 -.312E+04   0.611E-08 0.220E-08 0.311E+04   -.282E-01 -.163E-01 0.360E+01   0.212E-01 0.122E-01 -.102E+00
   -.127E-06 -.733E-07 -.430E+03   -.197E-09 -.111E-09 0.432E+03   0.105E-18 0.119E-18 -.197E+01   -.330E-10 -.190E-10 -.436E-02
 -----------------------------------------------------------------------------------------------
   -.515E-06 -.294E-06 0.106E+02   0.994E-13 -.356E-13 -.796E-12   -.554E-16 0.167E-15 -.836E+01   -.276E-08 -.159E-08 -.225E+01
 
 
 POSITION                                       TOTAL-FORCE (eV/Angst)
 -----------------------------------------------------------------------------------
      1.27810      0.73791     15.00000        -0.059010     -0.034070      0.161321
      3.83429      0.73791     15.00000         0.059010     -0.034070      0.161321
      2.55619      2.95164     15.00000        -0.000000      0.068139      0.161321
      5.11238      2.95164     15.00000         0.000000      0.000000      0.165591
      5.11238      1.47582     17.08712         0.000000     -0.016206     -0.012770
      2.55619      1.47582     17.08712         0.000000      0.000000      0.072585
      6.39048      3.68954     17.08712         0.014034      0.008103     -0.012770
      3.83429      3.68954     17.08712        -0.014034      0.008103     -0.012770
      0.00000      0.00000     19.17424         0.000000      0.000000     -0.257439
      2.55619      0.00000     19.17424        -0.000000      0.004695     -0.143576
      1.27810      2.21373     19.17424         0.004066     -0.002348     -0.143576
      3.83429      2.21373     19.17424        -0.004066     -0.002348     -0.143576
      0.00000      0.00000     20.68393        -0.000000      0.000000      0.004337
 -----------------------------------------------------------------------------------
    total drift:                               -0.000001     -0.000000     -0.014926


--------------------------------------------------------------------------------------------------------



  FREE ENERGIE OF THE ION-ELECTRON SYSTEM (eV)
  ---------------------------------------------------
  free  energy   TOTEN  =       -48.58121419 eV

  energy  without entropy=      -48.54336667  energy(sigma->0) =      -48.56229043
 
 d Force = 0.1998384E-05[-0.352E-05, 0.752E-05]  d Energy = 0.3354412E-04-0.315E-04
 d Force =-0.3503922E+00[-0.350E+00,-0.350E+00]  d Ewald  =-0.3503922E+00-0.616E-08


--------------------------------------------------------------------------------------------------------


    POTLOK:  cpu time      0.0559: real time      0.0563


--------------------------------------------------------------------------------------------------------




--------------------------------------------------------------------------------------------------------


    WAVPRE:  cpu time      0.0046: real time      0.0215
    FEWALD:  cpu time      0.0003: real time      0.0003
    ORTHCH:  cpu time      0.2026: real time      0.2046
     LOOP+:  cpu time      7.3228: real time      7.4268


--------------------------------------- Iteration     11(   1)  ---------------------------------------


    POTLOK:  cpu time      0.0454: real time      0.0459
    SETDIJ:  cpu time      0.0039: real time      0.0039
     EDDAV:  cpu time      1.7851: real time      1.8019
       DOS:  cpu time      0.0016: real time      0.0016
    CHARGE:  cpu time      0.1166: real time      0.1172
    MIXING:  cpu time      0.0007: real time      0.0007
    --------------------------------------------
      LOOP:  cpu time      1.9533: real time      1.9712

 eigenvalue-minimisations  :  1408
 total energy-change (2. order) : 0.7453127E-07  (-0.1471528E-04)
 number of electron     133.0000045 magnetization      -0.0000785
 augmentation part       84.2734311 magnetization      -0.0000410

 Broyden mixing:
  rms(total) = 0.76127E-03    rms(broyden)= 0.76098E-03
  rms(prec ) = 0.82815E-03
  weight for this iteration     100.00

 Free energy of the ion-electron system (eV)
  ---------------------------------------------------
  alpha Z        PSCENC =       137.59429322
  Ewald energy   TEWEN  =    123746.50682397
  -Hartree energ DENC   =   -139160.13462762
  -exchange      EXHF   =         0.00000000
  -V(xc)+E(xc)   XCENC  =       536.25185225
  PAW double counting   =     15642.87627836   -16934.77263756
  entropy T*S    EENTRO =        -0.03807128
  eigenvalues    EBANDS =      -716.42160597
  atomic energy  EATOM  =     16704.21750749
  Solvation  Ecorr_sol  =         0.00000000
  ---------------------------------------------------
  free energy    TOTEN  =       -43.92018714 eV

  energy without entropy =      -43.88211586  energy(sigma->0) =      -43.90115150


--------------------------------------------------------------------------------------------------------




--------------------------------------- Iteration     11(   2)  ---------------------------------------


    POTLOK:  cpu time      0.0440: real time      0.0450
    SETDIJ:  cpu time      0.0031: real time      0.0031
     EDDAV:  cpu time      1.9634: real time      1.9825
       DOS:  cpu time      0.0029: real time      0.0029
    --------------------------------------------
      LOOP:  cpu time      2.0134: real time      2.0334

 eigenvalue-minimisations  :  1568
 total energy-change (2. order) :-0.7853898E-05  (-0.4009357E-05)
 number of electron     133.0000045 magnetization      -0.0000785
 augmentation part       84.2734311 magnetization      -0.0000410

 Free energy of the ion-electron system (eV)
  ---------------------------------------------------
  alpha Z        PSCENC =       137.59429322
  Ewald energy   TEWEN  =    123746.50682397
  -Hartree energ DENC   =   -139160.14720070
  -exchange      EXHF   =         0.00000000
  -V(xc)+E(xc)   XCENC  =       536.25202316
  PAW double counting   =     15642.73062932   -16934.62532046
  entropy T*S    EENTRO =        -0.03799923
  eigenvalues    EBANDS =      -716.41095176
  atomic energy  EATOM  =     16704.21750749
  Solvation  Ecorr_sol  =         0.00000000
  ---------------------------------------------------
  free energy    TOTEN  =       -43.92019499 eV

  energy without entropy =      -43.88219576  energy(sigma->0) =      -43.90119538


--------------------------------------------------------------------------------------------------------




 average (electrostatic) potential at core
  the test charge radii are     0.9430  0.5201
  (the norm of the test charge is              1.0000)
       1 -73.5724       2 -73.5724       3 -73.5724       4 -73.6095       5 -73.8338
       6 -73.8243       7 -73.8338       8 -73.8338       9 -74.0920      10 -73.5101
      11 -73.5101      12 -73.5101      13 -38.7861
 
 
 
 E-fermi :  -2.5607     XC(G=0):  -2.9602     alpha+bet : -2.4952

 Fermi energy:        -2.5606828367

 spin component 1

 k-point     1 :       0.0000    0.0000    0.0000
  band No.  band energies     occupation 
      1     -11.1657      1.00000
      2      -9.2803      1.00000
      3      -7.7575      1.00000
      4      -7.3805      1.00000
      5      -7.2643      1.00000
      6      -7.2643      1.00000
      7      -7.1202      1.00000
      8      -7.0656      1.00000
      9      -7.0656      1.00000
     10      -6.8097      1.00000
     11      -6.6942      1.00000
     12      -6.6942      1.00000
     13      -6.6468      1.00000
     14      -6.6468      1.00000
     15      -6.6412      1.00000
     16      -6.5020      1.00000
     17      -6.0613      1.00000
     18      -6.0613      1.00000
     19      -5.9148      1.00000
     20      -5.6387      1.00000
     21      -5.6387      1.00000
     22      -5.5945      1.00000
     23      -5.5448      1.00000
     24      -5.5021      1.00000
     25      -5.5021      1.00000
     26      -5.3339      1.00000
     27      -5.3339      1.00000
     28      -5.3116      1.00000
     29      -5.3013      1.00000
     30      -5.3013      1.00000
     31      -5.2675      1.00000
     32      -5.1992      1.00000
     33      -5.1992      1.00000
     34      -5.0433      1.00000
     35      -5.0433      1.00000
     36      -4.8470      1.00000
     37      -4.7978      1.00000
     38      -4.7978      1.00000
     39      -4.6551      1.00000
     40      -4.6551      1.00000
     41      -4.6176      1.00000
     42      -4.6163      1.00000
     43      -4.6163      1.00000
     44      -4.5664      1.00000
     45      -4.3786      1.00000
     46      -4.3786      1.00000
     47      -4.2515      1.00000
     48      -4.2515      1.00000
     49      -4.2031      1.00000
     50      -4.1951      1.00000
     51      -4.1591      1.00000
     52      -4.1591      1.00000
     53      -4.1464      1.00000
     54      -4.1464      1.00000
     55      -4.1216      1.00000
     56      -4.1216      1.00000
     57      -4.1159      1.00000
     58      -3.9885      1.00000
     59      -3.9885      1.00000
     60      -3.9073      1.00000
     61      -3.9073      1.00000
     62      -3.9000      1.00000
     63      -3.8480      1.00000
     64      -3.1890      1.00000
     65      -2.5027      0.10445
     66      -2.5027      0.10443
     67      -2.5022      0.10280
     68      -1.3989      0.00000
     69      -1.3989      0.00000
     70      -1.3699      0.00000
     71      -0.9836      0.00000
     72      -0.9655      0.00000
     73      -0.9655      0.00000
     74      -0.4962      0.00000
     75       1.6825      0.00000
     76       1.9496      0.00000
     77       1.9497      0.00000
     78       2.0223      0.00000
     79       2.1544      0.00000
     80       2.3174      0.00000
     81       2.6911      0.00000
     82       2.8775      0.00000
     83       3.1270      0.00000
     84       3.1270      0.00000
     85       3.5204      0.00000
     86       3.5897      0.00000
     87       3.8049      0.00000
     88       3.9031      0.00000
     89       3.9031      0.00000
     90       4.8163      0.00000
     91       4.9093      0.00000
     92       5.8251      0.00000
     93       6.3519      0.00000
     94       6.3551      0.00000
     95       6.3551      0.00000
     96       6.4533      0.00000

 k-point     2 :       0.2000    0.0000    0.0000
  band No.  band energies     occupation 
      1     -10.8500      1.00000
      2      -8.9889      1.00000
      3      -7.6079      1.00000
      4      -7.5064      1.00000
      5      -7.2845      1.00000
      6      -7.1889      1.00000
      7      -7.0976      1.00000
      8      -7.0162      1.00000
      9      -6.9593      1.00000
     10      -6.7689      1.00000
     11      -6.6492      1.00000
     12      -6.6193      1.00000
     13      -6.5653      1.00000
     14      -6.4903      1.00000
     15      -6.4823      1.00000
     16      -6.4035      1.00000
     17      -6.0500      1.00000
     18      -6.0243      1.00000
     19      -5.9075      1.00000
     20      -5.6466      1.00000
     21      -5.5864      1.00000
     22      -5.5863      1.00000
     23      -5.5655      1.00000
     24      -5.5375      1.00000
     25      -5.5106      1.00000
     26      -5.4321      1.00000
     27      -5.4019      1.00000
     28      -5.3953      1.00000
     29      -5.2820      1.00000
     30      -5.2766      1.00000
     31      -5.2377      1.00000
     32      -5.2284      1.00000
     33      -5.1801      1.00000
     34      -5.1430      1.00000
     35      -5.1086      1.00000
     36      -5.0942      1.00000
     37      -4.9045      1.00000
     38      -4.8628      1.00000
     39      -4.7743      1.00000
     40      -4.7170      1.00000
     41      -4.7088      1.00000
     42      -4.6601      1.00000
     43      -4.6520      1.00000
     44      -4.5965      1.00000
     45      -4.5688      1.00000
     46      -4.4580      1.00000
     47      -4.4417      1.00000
     48      -4.3869      1.00000
     49      -4.3740      1.00000
     50      -4.3064      1.00000
     51      -4.2985      1.00000
     52      -4.2899      1.00000
     53      -4.2592      1.00000
     54      -4.2438      1.00000
     55      -4.2236      1.00000
     56      -4.1900      1.00000
     57      -4.1412      1.00000
     58      -4.1168      1.00000
     59      -4.0708      1.00000
     60      -4.0669      1.00000
     61      -4.0267      1.00000
     62      -3.9993      1.00000
     63      -3.9507      1.00000
     64      -3.8389      1.00000
     65      -2.9906      1.00000
     66      -2.5969      0.79294
     67      -2.5504      0.40564
     68      -2.5003      0.09641
     69      -1.5268      0.00000
     70      -1.4803      0.00000
     71      -0.7301      0.00000
     72      -0.0437      0.00000
     73       0.0325      0.00000
     74       0.5654      0.00000
     75       1.9837      0.00000
     76       2.3069      0.00000
     77       2.3337      0.00000
     78       2.4365      0.00000
     79       2.6190      0.00000
     80       2.7195      0.00000
     81       2.9980      0.00000
     82       3.1545      0.00000
     83       3.1645      0.00000
     84       3.3157      0.00000
     85       3.8464      0.00000
     86       3.9473      0.00000
     87       4.1516      0.00000
     88       4.4778      0.00000
     89       4.6290      0.00000
     90       5.1337      0.00000
     91       5.2069      0.00000
     92       5.9813      0.00000
     93       6.0289      0.00000
     94       6.2465      0.00000
     95       6.5833      0.00000
     96       6.6703      0.00000

 k-point     3 :       0.4000    0.0000    0.0000
  band No.  band energies     occupation 
      1      -9.9464      1.00000
      2      -8.6604      1.00000
      3      -8.1997      1.00000
      4      -7.4046      1.00000
      5      -7.0945      1.00000
      6      -7.0195      1.00000
      7      -6.9259      1.00000
      8      -6.8681      1.00000
      9      -6.7361      1.00000
     10      -6.6352      1.00000
     11      -6.5636      1.00000
     12      -6.4140      1.00000
     13      -6.3569      1.00000
     14      -6.2299      1.00000
     15      -6.2172      1.00000
     16      -6.1405      1.00000
     17      -5.9704      1.00000
     18      -5.9481      1.00000
     19      -5.9044      1.00000
     20      -5.8866      1.00000
     21      -5.8136      1.00000
     22      -5.8066      1.00000
     23      -5.7150      1.00000
     24      -5.5906      1.00000
     25      -5.5697      1.00000
     26      -5.4539      1.00000
     27      -5.4371      1.00000
     28      -5.4304      1.00000
     29      -5.3875      1.00000
     30      -5.3338      1.00000
     31      -5.2965      1.00000
     32      -5.2556      1.00000
     33      -5.2068      1.00000
     34      -5.1976      1.00000
     35      -5.1584      1.00000
     36      -5.1405      1.00000
     37      -5.1350      1.00000
     38      -5.0733      1.00000
     39      -5.0603      1.00000
     40      -5.0412      1.00000
     41      -5.0387      1.00000
     42      -4.9775      1.00000
     43      -4.8027      1.00000
     44      -4.7909      1.00000
     45      -4.7672      1.00000
     46      -4.7452      1.00000
     47      -4.7144      1.00000
     48      -4.6648      1.00000
     49      -4.6001      1.00000
     50      -4.5652      1.00000
     51      -4.5400      1.00000
     52      -4.5170      1.00000
     53      -4.4202      1.00000
     54      -4.3936      1.00000
     55      -4.3919      1.00000
     56      -4.3763      1.00000
     57      -4.3434      1.00000
     58      -4.2622      1.00000
     59      -4.1772      1.00000
     60      -4.1380      1.00000
     61      -4.1208      1.00000
     62      -4.1136      1.00000
     63      -4.0544      1.00000
     64      -4.0429      1.00000
     65      -3.3252      1.00000
     66      -2.5842      0.70498
     67      -2.5457      0.36466
     68      -2.2024      0.00000
     69      -1.4951      0.00000
     70      -1.4110      0.00000
     71      -1.0122      0.00000
     72       0.2425      0.00000
     73       0.9525      0.00000
     74       1.1289      0.00000
     75       2.2705      0.00000
     76       2.9693      0.00000
     77       3.2697      0.00000
     78       3.3264      0.00000
     79       3.4483      0.00000
     80       3.5440      0.00000
     81       3.9258      0.00000
     82       4.0638      0.00000
     83       4.1271      0.00000
     84       4.3012      0.00000
     85       4.7642      0.00000
     86       4.8306      0.00000
     87       4.8749      0.00000
     88       5.0319      0.00000
     89       5.0684      0.00000
     90       5.2212      0.00000
     91       5.4234      0.00000
     92       5.5157      0.00000
     93       5.8725      0.00000
     94       6.0084      0.00000
     95       6.0472      0.00000
     96       6.0649      0.00000

 k-point     4 :       0.4000    0.2000    0.0000
  band No.  band energies     occupation 
      1     -10.2383      1.00000
      2      -8.4562      1.00000
      3      -7.8813      1.00000
      4      -7.8248      1.00000
      5      -7.1988      1.00000
      6      -7.0654      1.00000
      7      -7.0114      1.00000
      8      -6.8411      1.00000
      9      -6.7817      1.00000
     10      -6.6144      1.00000
     11      -6.5246      1.00000
     12      -6.4820      1.00000
     13      -6.4172      1.00000
     14      -6.2819      1.00000
     15      -6.2731      1.00000
     16      -6.2215      1.00000
     17      -6.0077      1.00000
     18      -5.9890      1.00000
     19      -5.9222      1.00000
     20      -5.8233      1.00000
     21      -5.7238      1.00000
     22      -5.6943      1.00000
     23      -5.6476      1.00000
     24      -5.6352      1.00000
     25      -5.5489      1.00000
     26      -5.4860      1.00000
     27      -5.4323      1.00000
     28      -5.3880      1.00000
     29      -5.3532      1.00000
     30      -5.3468      1.00000
     31      -5.3208      1.00000
     32      -5.3041      1.00000
     33      -5.2501      1.00000
     34      -5.1867      1.00000
     35      -5.1473      1.00000
     36      -5.0930      1.00000
     37      -5.0499      1.00000
     38      -5.0056      1.00000
     39      -4.9609      1.00000
     40      -4.9406      1.00000
     41      -4.8794      1.00000
     42      -4.8654      1.00000
     43      -4.8416      1.00000
     44      -4.7850      1.00000
     45      -4.7548      1.00000
     46      -4.7160      1.00000
     47      -4.6576      1.00000
     48      -4.6086      1.00000
     49      -4.5773      1.00000
     50      -4.5649      1.00000
     51      -4.4727      1.00000
     52      -4.4468      1.00000
     53      -4.3781      1.00000
     54      -4.3455      1.00000
     55      -4.2773      1.00000
     56      -4.2692      1.00000
     57      -4.2123      1.00000
     58      -4.2019      1.00000
     59      -4.1708      1.00000
     60      -4.1573      1.00000
     61      -4.1454      1.00000
     62      -4.1153      1.00000
     63      -3.8349      1.00000
     64      -3.8267      1.00000
     65      -3.6668      1.00000
     66      -3.1977      1.00000
     67      -3.1104      1.00000
     68      -1.9769      0.00000
     69      -0.8312      0.00000
     70      -0.7708      0.00000
     71      -0.6772      0.00000
     72      -0.1311      0.00000
     73       0.5606      0.00000
     74       0.9056      0.00000
     75       2.4404      0.00000
     76       2.4843      0.00000
     77       2.5433      0.00000
     78       2.9584      0.00000
     79       3.2140      0.00000
     80       3.3396      0.00000
     81       3.6196      0.00000
     82       3.7735      0.00000
     83       4.1716      0.00000
     84       4.4288      0.00000
     85       4.4843      0.00000
     86       4.4898      0.00000
     87       4.6468      0.00000
     88       5.0548      0.00000
     89       5.3162      0.00000
     90       5.6527      0.00000
     91       5.7514      0.00000
     92       5.7944      0.00000
     93       6.0228      0.00000
     94       6.1111      0.00000
     95       6.1952      0.00000
     96       6.2661      0.00000

 k-point     5 :      -0.4000    0.2000    0.0000
  band No.  band energies     occupation 
      1      -9.1513      1.00000
      2      -9.0851      1.00000
      3      -7.9860      1.00000
      4      -7.6700      1.00000
      5      -7.4699      1.00000
      6      -7.0204      1.00000
      7      -6.7494      1.00000
      8      -6.5533      1.00000
      9      -6.5183      1.00000
     10      -6.5060      1.00000
     11      -6.4913      1.00000
     12      -6.2756      1.00000
     13      -6.2472      1.00000
     14      -6.2280      1.00000
     15      -6.1962      1.00000
     16      -6.0677      1.00000
     17      -6.0309      1.00000
     18      -6.0032      1.00000
     19      -5.9774      1.00000
     20      -5.9106      1.00000
     21      -5.8703      1.00000
     22      -5.7832      1.00000
     23      -5.7233      1.00000
     24      -5.6623      1.00000
     25      -5.6260      1.00000
     26      -5.6057      1.00000
     27      -5.5761      1.00000
     28      -5.5486      1.00000
     29      -5.5276      1.00000
     30      -5.4721      1.00000
     31      -5.4128      1.00000
     32      -5.3634      1.00000
     33      -5.3171      1.00000
     34      -5.2758      1.00000
     35      -5.2450      1.00000
     36      -5.2248      1.00000
     37      -5.1701      1.00000
     38      -5.1616      1.00000
     39      -5.1341      1.00000
     40      -5.0597      1.00000
     41      -5.0225      1.00000
     42      -4.9159      1.00000
     43      -4.8392      1.00000
     44      -4.7890      1.00000
     45      -4.7365      1.00000
     46      -4.7088      1.00000
     47      -4.6779      1.00000
     48      -4.6469      1.00000
     49      -4.6319      1.00000
     50      -4.5634      1.00000
     51      -4.4999      1.00000
     52      -4.4661      1.00000
     53      -4.4173      1.00000
     54      -4.4099      1.00000
     55      -4.3588      1.00000
     56      -4.3355      1.00000
     57      -4.3275      1.00000
     58      -4.2389      1.00000
     59      -4.2078      1.00000
     60      -4.1985      1.00000
     61      -4.1771      1.00000
     62      -4.1403      1.00000
     63      -4.1220      1.00000
     64      -4.0687      1.00000
     65      -3.7622      1.00000
     66      -3.3821      1.00000
     67      -2.8611      0.99999
     68      -2.0778      0.00000
     69      -1.2269      0.00000
     70      -0.4972      0.00000
     71      -0.2671      0.00000
     72       0.5963      0.00000
     73       0.9116      0.00000
     74       1.7361      0.00000
     75       2.2400      0.00000
     76       2.4087      0.00000
     77       2.9617      0.00000
     78       3.6172      0.00000
     79       3.6898      0.00000
     80       3.9879      0.00000
     81       4.1528      0.00000
     82       4.2502      0.00000
     83       4.3029      0.00000
     84       4.4500      0.00000
     85       4.4662      0.00000
     86       4.8119      0.00000
     87       4.8598      0.00000
     88       4.9305      0.00000
     89       4.9469      0.00000
     90       4.9528      0.00000
     91       5.5421      0.00000
     92       5.6710      0.00000
     93       5.7347      0.00000
     94       5.7619      0.00000
     95       5.8294      0.00000
     96       5.9255      0.00000
 Fermi energy:        -2.5606828367

 spin component 2

 k-point     1 :       0.0000    0.0000    0.0000
  band No.  band energies     occupation 
      1     -11.1657      1.00000
      2      -9.2803      1.00000
      3      -7.7575      1.00000
      4      -7.3805      1.00000
      5      -7.2643      1.00000
      6      -7.2643      1.00000
      7      -7.1202      1.00000
      8      -7.0656      1.00000
      9      -7.0656      1.00000
     10      -6.8097      1.00000
     11      -6.6942      1.00000
     12      -6.6942      1.00000
     13      -6.6468      1.00000
     14      -6.6468      1.00000
     15      -6.6412      1.00000
     16      -6.5020      1.00000
     17      -6.0613      1.00000
     18      -6.0613      1.00000
     19      -5.9148      1.00000
     20      -5.6387      1.00000
     21      -5.6387      1.00000
     22      -5.5945      1.00000
     23      -5.5448      1.00000
     24      -5.5021      1.00000
     25      -5.5021      1.00000
     26      -5.3339      1.00000
     27      -5.3339      1.00000
     28      -5.3116      1.00000
     29      -5.3013      1.00000
     30      -5.3013      1.00000
     31      -5.2675      1.00000
     32      -5.1992      1.00000
     33      -5.1992      1.00000
     34      -5.0433      1.00000
     35      -5.0433      1.00000
     36      -4.8470      1.00000
     37      -4.7978      1.00000
     38      -4.7978      1.00000
     39      -4.6551      1.00000
     40      -4.6551      1.00000
     41      -4.6176      1.00000
     42      -4.6163      1.00000
     43      -4.6163      1.00000
     44      -4.5664      1.00000
     45      -4.3786      1.00000
     46      -4.3786      1.00000
     47      -4.2515      1.00000
     48      -4.2515      1.00000
     49      -4.2031      1.00000
     50      -4.1951      1.00000
     51      -4.1591      1.00000
     52      -4.1591      1.00000
     53      -4.1464      1.00000
     54      -4.1464      1.00000
     55      -4.1216      1.00000
     56      -4.1216      1.00000
     57      -4.1159      1.00000
     58      -3.9885      1.00000
     59      -3.9885      1.00000
     60      -3.9073      1.00000
     61      -3.9073      1.00000
     62      -3.9000      1.00000
     63      -3.8480      1.00000
     64      -3.1890      1.00000
     65      -2.5027      0.10448
     66      -2.5027      0.10445
     67      -2.5022      0.10282
     68      -1.3989      0.00000
     69      -1.3989      0.00000
     70      -1.3699      0.00000
     71      -0.9836      0.00000
     72      -0.9655      0.00000
     73      -0.9655      0.00000
     74      -0.4962      0.00000
     75       1.6817      0.00000
     76       1.9496      0.00000
     77       1.9496      0.00000
     78       2.0203      0.00000
     79       2.1545      0.00000
     80       2.3182      0.00000
     81       2.6919      0.00000
     82       2.8776      0.00000
     83       3.1270      0.00000
     84       3.1270      0.00000
     85       3.5201      0.00000
     86       3.5892      0.00000
     87       3.8042      0.00000
     88       3.9031      0.00000
     89       3.9031      0.00000
     90       4.8155      0.00000
     91       4.9095      0.00000
     92       5.8251      0.00000
     93       6.3517      0.00000
     94       6.3551      0.00000
     95       6.3551      0.00000
     96       6.4529      0.00000

 k-point     2 :       0.2000    0.0000    0.0000
  band No.  band energies     occupation 
      1     -10.8500      1.00000
      2      -8.9889      1.00000
      3      -7.6079      1.00000
      4      -7.5064      1.00000
      5      -7.2845      1.00000
      6      -7.1890      1.00000
      7      -7.0976      1.00000
      8      -7.0162      1.00000
      9      -6.9593      1.00000
     10      -6.7689      1.00000
     11      -6.6492      1.00000
     12      -6.6193      1.00000
     13      -6.5653      1.00000
     14      -6.4903      1.00000
     15      -6.4823      1.00000
     16      -6.4035      1.00000
     17      -6.0500      1.00000
     18      -6.0243      1.00000
     19      -5.9075      1.00000
     20      -5.6466      1.00000
     21      -5.5864      1.00000
     22      -5.5863      1.00000
     23      -5.5655      1.00000
     24      -5.5375      1.00000
     25      -5.5106      1.00000
     26      -5.4321      1.00000
     27      -5.4019      1.00000
     28      -5.3953      1.00000
     29      -5.2820      1.00000
     30      -5.2766      1.00000
     31      -5.2377      1.00000
     32      -5.2284      1.00000
     33      -5.1801      1.00000
     34      -5.1430      1.00000
     35      -5.1086      1.00000
     36      -5.0942      1.00000
     37      -4.9045      1.00000
     38      -4.8628      1.00000
     39      -4.7743      1.00000
     40      -4.7170      1.00000
     41      -4.7088      1.00000
     42      -4.6601      1.00000
     43      -4.6520      1.00000
     44      -4.5965      1.00000
     45      -4.5688      1.00000
     46      -4.4580      1.00000
     47      -4.4417      1.00000
     48      -4.3869      1.00000
     49      -4.3740      1.00000
     50      -4.3064      1.00000
     51      -4.2985      1.00000
     52      -4.2899      1.00000
     53      -4.2592      1.00000
     54      -4.2438      1.00000
     55      -4.2236      1.00000
     56      -4.1900      1.00000
     57      -4.1412      1.00000
     58      -4.1168      1.00000
     59      -4.0708      1.00000
     60      -4.0669      1.00000
     61      -4.0267      1.00000
     62      -3.9993      1.00000
     63      -3.9507      1.00000
     64      -3.8389      1.00000
     65      -2.9906      1.00000
     66      -2.5969      0.79298
     67      -2.5504      0.40569
     68      -2.5003      0.09644
     69      -1.5268      0.00000
     70      -1.4803      0.00000
     71      -0.7301      0.00000
     72      -0.0437      0.00000
     73       0.0325      0.00000
     74       0.5654      0.00000
     75       1.9828      0.00000
     76       2.3069      0.00000
     77       2.3317      0.00000
     78       2.4366      0.00000
     79       2.6198      0.00000
     80       2.7195      0.00000
     81       2.9989      0.00000
     82       3.1545      0.00000
     83       3.1644      0.00000
     84       3.3158      0.00000
     85       3.8459      0.00000
     86       3.9469      0.00000
     87       4.1510      0.00000
     88       4.4778      0.00000
     89       4.6289      0.00000
     90       5.1331      0.00000
     91       5.2071      0.00000
     92       5.9812      0.00000
     93       6.0288      0.00000
     94       6.2461      0.00000
     95       6.5828      0.00000
     96       6.6704      0.00000

 k-point     3 :       0.4000    0.0000    0.0000
  band No.  band energies     occupation 
      1      -9.9464      1.00000
      2      -8.6604      1.00000
      3      -8.1997      1.00000
      4      -7.4046      1.00000
      5      -7.0945      1.00000
      6      -7.0195      1.00000
      7      -6.9259      1.00000
      8      -6.8681      1.00000
      9      -6.7361      1.00000
     10      -6.6352      1.00000
     11      -6.5636      1.00000
     12      -6.4140      1.00000
     13      -6.3569      1.00000
     14      -6.2299      1.00000
     15      -6.2172      1.00000
     16      -6.1405      1.00000
     17      -5.9704      1.00000
     18      -5.9481      1.00000
     19      -5.9044      1.00000
     20      -5.8866      1.00000
     21      -5.8136      1.00000
     22      -5.8066      1.00000
     23      -5.7150      1.00000
     24      -5.5906      1.00000
     25      -5.5697      1.00000
     26      -5.4539      1.00000
     27      -5.4371      1.00000
     28      -5.4304      1.00000
     29      -5.3875      1.00000
     30      -5.3338      1.00000
     31      -5.2965      1.00000
     32      -5.2556      1.00000
     33      -5.2068      1.00000
     34      -5.1976      1.00000
     35      -5.1584      1.00000
     36      -5.1405      1.00000
     37      -5.1350      1.00000
     38      -5.0733      1.00000
     39      -5.0603      1.00000
     40      -5.0412      1.00000
     41      -5.0387      1.00000
     42      -4.9775      1.00000
     43      -4.8027      1.00000
     44      -4.7909      1.00000
     45      -4.7672      1.00000
     46      -4.7452      1.00000
     47      -4.7144      1.00000
     48      -4.6648      1.00000
     49      -4.6001      1.00000
     50      -4.5653      1.00000
     51      -4.5400      1.00000
     52      -4.5170      1.00000
     53      -4.4202      1.00000
     54      -4.3936      1.00000
     55      -4.3919      1.00000
     56      -4.3763      1.00000
     57      -4.3434      1.00000
     58      -4.2622      1.00000
     59      -4.1773      1.00000
     60      -4.1380      1.00000
     61      -4.1208      1.00000
     62      -4.1136      1.00000
     63      -4.0544      1.00000
     64      -4.0429      1.00000
     65      -3.3252      1.00000
     66      -2.5842      0.70501
     67      -2.5457      0.36470
     68      -2.2024      0.00000
     69      -1.4951      0.00000
     70      -1.4110      0.00000
     71      -1.0122      0.00000
     72       0.2425      0.00000
     73       0.9525      0.00000
     74       1.1289      0.00000
     75       2.2703      0.00000
     76       2.9685      0.00000
     77       3.2679      0.00000
     78       3.3264      0.00000
     79       3.4485      0.00000
     80       3.5446      0.00000
     81       3.9266      0.00000
     82       4.0635      0.00000
     83       4.1267      0.00000
     84       4.3012      0.00000
     85       4.7629      0.00000
     86       4.8294      0.00000
     87       4.8745      0.00000
     88       5.0318      0.00000
     89       5.0689      0.00000
     90       5.2212      0.00000
     91       5.4240      0.00000
     92       5.5151      0.00000
     93       5.8723      0.00000
     94       6.0084      0.00000
     95       6.0466      0.00000
     96       6.0651      0.00000

 k-point     4 :       0.4000    0.2000    0.0000
  band No.  band energies     occupation 
      1     -10.2383      1.00000
      2      -8.4562      1.00000
      3      -7.8813      1.00000
      4      -7.8248      1.00000
      5      -7.1988      1.00000
      6      -7.0654      1.00000
      7      -7.0114      1.00000
      8      -6.8411      1.00000
      9      -6.7817      1.00000
     10      -6.6144      1.00000
     11      -6.5247      1.00000
     12      -6.4820      1.00000
     13      -6.4172      1.00000
     14      -6.2819      1.00000
     15      -6.2731      1.00000
     16      -6.2215      1.00000
     17      -6.0077      1.00000
     18      -5.9890      1.00000
     19      -5.9222      1.00000
     20      -5.8233      1.00000
     21      -5.7238      1.00000
     22      -5.6943      1.00000
     23      -5.6476      1.00000
     24      -5.6352      1.00000
     25      -5.5489      1.00000
     26      -5.4860      1.00000
     27      -5.4323      1.00000
     28      -5.3880      1.00000
     29      -5.3532      1.00000
     30      -5.3468      1.00000
     31      -5.3208      1.00000
     32      -5.3041      1.00000
     33      -5.2501      1.00000
     34      -5.1867      1.00000
     35      -5.1473      1.00000
     36      -5.0930      1.00000
     37      -5.0499      1.00000
     38      -5.0056      1.00000
     39      -4.9609      1.00000
     40      -4.9406      1.00000
     41      -4.8794      1.00000
     42      -4.8654      1.00000
     43      -4.8416      1.00000
     44      -4.7850      1.00000
     45      -4.7548      1.00000
     46      -4.7160      1.00000
     47      -4.6576      1.00000
     48      -4.6086      1.00000
     49      -4.5773      1.00000
     50      -4.5649      1.00000
     51      -4.4727      1.00000
     52      -4.4468      1.00000
     53      -4.3781      1.00000
     54      -4.3455      1.00000
     55      -4.2773      1.00000
     56      -4.2692      1.00000
     57      -4.2123      1.00000
     58      -4.2019      1.00000
     59      -4.1708      1.00000
     60      -4.1573      1.00000
     61      -4.1454      1.00000
     62      -4.1153      1.00000
     63      -3.8349      1.00000
     64      -3.8267      1.00000
     65      -3.6668      1.00000
     66      -3.1977      1.00000
     67      -3.1104      1.00000
     68      -1.9769      0.00000
     69      -0.8312      0.00000
     70      -0.7709      0.00000
     71      -0.6772      0.00000
     72      -0.1311      0.00000
     73       0.5606      0.00000
     74       0.9056      0.00000
     75       2.4404      0.00000
     76       2.4837      0.00000
     77       2.5433      0.00000
     78       2.9563      0.00000
     79       3.2148      0.00000
     80       3.3397      0.00000
     81       3.6203      0.00000
     82       3.7734      0.00000
     83       4.1716      0.00000
     84       4.4288      0.00000
     85       4.4835      0.00000
     86       4.4898      0.00000
     87       4.6463      0.00000
     88       5.0545      0.00000
     89       5.3158      0.00000
     90       5.6525      0.00000
     91       5.7510      0.00000
     92       5.7944      0.00000
     93       6.0216      0.00000
     94       6.1090      0.00000
     95       6.1939      0.00000
     96       6.2667      0.00000

 k-point     5 :      -0.4000    0.2000    0.0000
  band No.  band energies     occupation 
      1      -9.1513      1.00000
      2      -9.0851      1.00000
      3      -7.9860      1.00000
      4      -7.6700      1.00000
      5      -7.4699      1.00000
      6      -7.0204      1.00000
      7      -6.7494      1.00000
      8      -6.5533      1.00000
      9      -6.5183      1.00000
     10      -6.5060      1.00000
     11      -6.4913      1.00000
     12      -6.2756      1.00000
     13      -6.2472      1.00000
     14      -6.2280      1.00000
     15      -6.1963      1.00000
     16      -6.0677      1.00000
     17      -6.0309      1.00000
     18      -6.0032      1.00000
     19      -5.9774      1.00000
     20      -5.9106      1.00000
     21      -5.8703      1.00000
     22      -5.7832      1.00000
     23      -5.7233      1.00000
     24      -5.6623      1.00000
     25      -5.6260      1.00000
     26      -5.6057      1.00000
     27      -5.5761      1.00000
     28      -5.5486      1.00000
     29      -5.5276      1.00000
     30      -5.4721      1.00000
     31      -5.4128      1.00000
     32      -5.3634      1.00000
     33      -5.3171      1.00000
     34      -5.2758      1.00000
     35      -5.2450      1.00000
     36      -5.2248      1.00000
     37      -5.1701      1.00000
     38      -5.1616      1.00000
     39      -5.1341      1.00000
     40      -5.0597      1.00000
     41      -5.0225      1.00000
     42      -4.9159      1.00000
     43      -4.8392      1.00000
     44      -4.7890      1.00000
     45      -4.7365      1.00000
     46      -4.7089      1.00000
     47      -4.6779      1.00000
     48      -4.6469      1.00000
     49      -4.6319      1.00000
     50      -4.5634      1.00000
     51      -4.4999      1.00000
     52      -4.4661      1.00000
     53      -4.4173      1.00000
     54      -4.4100      1.00000
     55      -4.3588      1.00000
     56      -4.3355      1.00000
     57      -4.3275      1.00000
     58      -4.2389      1.00000
     59      -4.2078      1.00000
     60      -4.1985      1.00000
     61      -4.1771      1.00000
     62      -4.1403      1.00000
     63      -4.1220      1.00000
     64      -4.0687      1.00000
     65      -3.7622      1.00000
     66      -3.3821      1.00000
     67      -2.8611      0.99999
     68      -2.0778      0.00000
     69      -1.2269      0.00000
     70      -0.4972      0.00000
     71      -0.2671      0.00000
     72       0.5963      0.00000
     73       0.9116      0.00000
     74       1.7361      0.00000
     75       2.2400      0.00000
     76       2.4087      0.00000
     77       2.9616      0.00000
     78       3.6164      0.00000
     79       3.6897      0.00000
     80       3.9877      0.00000
     81       4.1506      0.00000
     82       4.2485      0.00000
     83       4.3029      0.00000
     84       4.4508      0.00000
     85       4.4669      0.00000
     86       4.8127      0.00000
     87       4.8604      0.00000
     88       4.9303      0.00000
     89       4.9464      0.00000
     90       4.9523      0.00000
     91       5.5424      0.00000
     92       5.6697      0.00000
     93       5.7341      0.00000
     94       5.7603      0.00000
     95       5.8290      0.00000
     96       5.9251      0.00000


--------------------------------------------------------------------------------------------------------


 soft charge-density along one line, spin component           1
         0         1         2         3         4         5         6         7         8         9
 total charge-density along one line
 
 soft charge-density along one line, spin component           2
         0         1         2         3         4         5         6         7         8         9
 total charge-density along one line
 
 pseudopotential strength for first ion, spin component:           1
-10.093  -0.003  -0.005  -0.005   0.000   0.713   0.002   0.003
 -0.003 -10.061  -0.002   0.005  -0.002   0.002   0.687   0.002
 -0.005  -0.002 -10.054  -0.004  -0.003   0.003   0.002   0.681
 -0.005   0.005  -0.004 -10.055  -0.003   0.004  -0.003   0.003
  0.000  -0.002  -0.003  -0.003 -10.093  -0.000   0.001   0.002
  0.713   0.002   0.003   0.004  -0.000   6.487  -0.002  -0.002
  0.002   0.687   0.002  -0.003   0.001  -0.002   6.506  -0.001
  0.003   0.002   0.681   0.003   0.002  -0.002  -0.001   6.511
  0.004  -0.003   0.003   0.683   0.002  -0.003   0.002  -0.002
 -0.000   0.001   0.002   0.002   0.713   0.000  -0.001  -0.001
 -0.001   0.001  -0.007   0.001  -0.000   0.000  -0.000   0.002
 -0.001   0.001  -0.014   0.002  -0.001   0.001  -0.000   0.004
  0.002  -0.008  -0.001   0.000  -0.001  -0.001   0.009   0.000
  0.000   0.001  -0.008   0.002   0.000  -0.000  -0.001   0.008
  0.001   0.000  -0.001  -0.008   0.002  -0.001  -0.000   0.001
  0.003  -0.010  -0.001   0.000  -0.001  -0.002   0.011   0.001
  0.000   0.002  -0.008   0.003   0.000  -0.000  -0.001   0.010
  0.002   0.000  -0.002  -0.009   0.003  -0.001  -0.000   0.001
 pseudopotential strength for first ion, spin component:           2
-10.093  -0.003  -0.005  -0.005   0.000   0.713   0.002   0.003
 -0.003 -10.061  -0.002   0.005  -0.002   0.002   0.687   0.002
 -0.005  -0.002 -10.054  -0.004  -0.003   0.003   0.002   0.681
 -0.005   0.005  -0.004 -10.055  -0.003   0.004  -0.003   0.003
  0.000  -0.002  -0.003  -0.003 -10.093  -0.000   0.001   0.002
  0.713   0.002   0.003   0.004  -0.000   6.487  -0.002  -0.002
  0.002   0.687   0.002  -0.003   0.001  -0.002   6.506  -0.001
  0.003   0.002   0.681   0.003   0.002  -0.002  -0.001   6.511
  0.004  -0.003   0.003   0.683   0.002  -0.003   0.002  -0.002
 -0.000   0.001   0.002   0.002   0.713   0.000  -0.001  -0.001
 -0.001   0.001  -0.007   0.001  -0.000   0.000  -0.000   0.002
 -0.001   0.001  -0.014   0.002  -0.001   0.001  -0.000   0.004
  0.002  -0.008  -0.001   0.000  -0.001  -0.001   0.009   0.000
  0.000   0.001  -0.008   0.002   0.000  -0.000  -0.001   0.008
  0.001   0.000  -0.001  -0.008   0.002  -0.001  -0.000   0.001
  0.003  -0.010  -0.001   0.000  -0.001  -0.002   0.011   0.001
  0.000   0.002  -0.008   0.003   0.000  -0.000  -0.001   0.010
  0.002   0.000  -0.002  -0.009   0.003  -0.001  -0.000   0.001
 total augmentation occupancy for first ion, spin component:           1
  1.908  -0.001   0.000  -0.005   0.001  -0.016   0.000   0.000   0.004  -0.000  -0.004  -0.001  -0.001   0.002   0.005   0.001
 -0.001   1.923  -0.003   0.002  -0.003   0.000  -0.032   0.001  -0.000   0.004  -0.007  -0.000   0.006   0.002   0.002  -0.008
  0.000  -0.003   1.924  -0.005   0.000   0.000   0.001  -0.028   0.001   0.000   0.003   0.014  -0.001   0.051  -0.001  -0.000
 -0.005   0.002  -0.005   1.925  -0.001   0.004  -0.000   0.001  -0.033   0.000  -0.011  -0.000   0.002   0.003   0.008   0.000
  0.001  -0.003   0.000  -0.001   1.907  -0.000   0.004   0.000   0.000  -0.016  -0.002  -0.001   0.006   0.001  -0.001  -0.001
 -0.016   0.000   0.000   0.004  -0.000   0.014  -0.000   0.000   0.000   0.000   0.000   0.000   0.000  -0.000   0.003  -0.000
  0.000  -0.032   0.001  -0.000   0.004  -0.000   0.010  -0.000   0.000   0.000   0.002   0.000   0.017  -0.000  -0.001  -0.001
  0.000   0.001  -0.028   0.001   0.000   0.000  -0.000   0.013  -0.000   0.000  -0.044   0.002   0.000   0.022   0.001   0.000
  0.004  -0.000   0.001  -0.033   0.000   0.000   0.000  -0.000   0.010  -0.000   0.003   0.000  -0.001  -0.001   0.017   0.000
 -0.000   0.004   0.000   0.000  -0.016   0.000   0.000   0.000  -0.000   0.014   0.000   0.000   0.003  -0.000   0.000  -0.000
 -0.004  -0.007   0.003  -0.011  -0.002   0.000   0.002  -0.044   0.003   0.000   1.711  -0.134  -0.002   0.127  -0.004   0.000
 -0.001  -0.000   0.014  -0.000  -0.001   0.000   0.000   0.002   0.000   0.000  -0.134   0.017  -0.000  -0.023  -0.001  -0.000
 -0.001   0.006  -0.001   0.002   0.006   0.000   0.017   0.000  -0.001   0.003  -0.002  -0.000   0.209   0.002   0.003  -0.013
  0.002   0.002   0.051   0.003   0.001  -0.000  -0.000   0.022  -0.001  -0.000   0.127  -0.023   0.002   0.124   0.004  -0.000
  0.005   0.002  -0.001   0.008  -0.001   0.003  -0.001   0.001   0.017   0.000  -0.004  -0.001   0.003   0.004   0.212  -0.000
  0.001  -0.008  -0.000   0.000  -0.001  -0.000  -0.001   0.000   0.000  -0.000   0.000  -0.000  -0.013  -0.000  -0.000   0.001
  0.000   0.001  -0.013   0.001   0.000   0.000  -0.000  -0.001  -0.000   0.000  -0.018   0.002  -0.000  -0.008  -0.000  -0.000
  0.000   0.000  -0.001  -0.008   0.001  -0.000   0.000   0.000  -0.001  -0.000   0.000  -0.000  -0.000  -0.000  -0.013  -0.000
 total augmentation occupancy for first ion, spin component:           2
 -0.000  -0.000   0.000   0.000   0.000   0.000  -0.000  -0.000  -0.000  -0.000  -0.000  -0.000   0.000  -0.000  -0.000  -0.000
 -0.000  -0.000   0.000   0.000   0.000   0.000  -0.000  -0.000  -0.000  -0.000  -0.000   0.000   0.000   0.000   0.000  -0.000
  0.000   0.000  -0.000   0.000   0.000  -0.000   0.000   0.000   0.000  -0.000   0.000   0.000  -0.000   0.000  -0.000   0.000
  0.000   0.000   0.000  -0.000  -0.000  -0.000  -0.000  -0.000  -0.000   0.000  -0.000   0.000   0.000   0.000   0.000  -0.000
  0.000   0.000   0.000  -0.000  -0.000  -0.000   0.000  -0.000  -0.000   0.000  -0.000  -0.000  -0.000  -0.000   0.000   0.000
  0.000   0.000  -0.000  -0.000  -0.000  -0.000   0.000   0.000   0.000   0.000   0.000  -0.000  -0.000   0.000   0.000   0.000
 -0.000  -0.000   0.000  -0.000   0.000   0.000  -0.000  -0.000   0.000   0.000   0.000   0.000  -0.000  -0.000   0.000   0.000
 -0.000  -0.000   0.000  -0.000  -0.000   0.000  -0.000  -0.000  -0.000   0.000  -0.000  -0.000  -0.000  -0.000  -0.000   0.000
 -0.000  -0.000   0.000  -0.000  -0.000   0.000   0.000  -0.000  -0.000   0.000   0.000   0.000   0.000  -0.000  -0.000  -0.000
 -0.000  -0.000  -0.000   0.000   0.000   0.000   0.000   0.000   0.000  -0.000   0.000  -0.000   0.000   0.000  -0.000  -0.000
 -0.000  -0.000   0.000  -0.000  -0.000   0.000   0.000  -0.000   0.000   0.000  -0.000  -0.000  -0.000   0.000  -0.000   0.000
 -0.000   0.000   0.000   0.000  -0.000  -0.000   0.000  -0.000   0.000  -0.000  -0.000  -0.000   0.000  -0.000   0.000   0.000
  0.000   0.000  -0.000   0.000  -0.000  -0.000  -0.000  -0.000   0.000   0.000  -0.000   0.000  -0.000   0.000   0.000   0.000
 -0.000   0.000   0.000   0.000  -0.000   0.000  -0.000  -0.000  -0.000   0.000   0.000  -0.000   0.000  -0.000   0.000  -0.000
 -0.000   0.000  -0.000   0.000   0.000   0.000   0.000  -0.000  -0.000  -0.000  -0.000   0.000   0.000   0.000  -0.000  -0.000
 -0.000  -0.000   0.000  -0.000   0.000   0.000   0.000   0.000  -0.000  -0.000   0.000   0.000   0.000  -0.000  -0.000  -0.000
  0.000  -0.000   0.000  -0.000   0.000  -0.000   0.000  -0.000   0.000  -0.000  -0.000  -0.000  -0.000  -0.000  -0.000   0.000
 -0.000  -0.000   0.000  -0.000  -0.000   0.000  -0.000   0.000  -0.000   0.000   0.000   0.000  -0.000  -0.000  -0.000  -0.000


------------------------ aborting loop because EDIFF is reached ----------------------------------------


    CHARGE:  cpu time      0.1213: real time      0.1222
    FORLOC:  cpu time      0.0018: real time      0.0018
    FORNL :  cpu time      0.2373: real time      0.2396
    STRESS:  cpu time      1.5347: real time      1.5477
    FORCOR:  cpu time      0.0383: real time      0.0389
    FORHAR:  cpu time      0.0045: real time      0.0045
    MIXING:  cpu time      0.0009: real time      0.0009
    OFIELD:  cpu time      0.0000: real time      0.0000

 ---------------------------------------------------------------------------------------------

         DFTD3 V3.0 Rev 1        
 Edisp (eV)   -4.66099

 E6    (eV) :    -2.5751
 E8    (eV) :    -2.0859
 % E8        : 44.75
    FORVDW:  cpu time      0.0107: real time      0.0108

  FORCE on cell =-STRESS in cart. coord.  units (eV):
  Direction    XX          YY          ZZ          XY          YZ          ZX
  --------------------------------------------------------------------------------------
  Alpha Z   137.59429   137.59429   137.59429
  Ewald  132499.75767132499.75767************    -0.00000    -0.00000    -0.00000
  Hartree136392.41901136392.41901************     0.00000    -0.00000    -0.00000
  E(xc)    -772.74122  -772.74108  -774.55111    -0.00012     0.00000     0.00000
  Local  ************************273551.67627     0.00203    -0.00000    -0.00000
  n-local  -254.42931  -267.66722  -265.65125    -7.79722    -0.05824     0.00286
  augment  1134.51776  1134.51986  1139.17604    -0.00182     0.00002     0.00003
  Kinetic  1079.83646  1080.84463  1088.69547     0.70717    -0.87672     1.06168
  Fock        0.00000     0.00000     0.00000     0.00000     0.00000     0.00000
  vdW        -4.92572    -4.92572    -2.45180     0.00000    -0.00000    -0.00000
  -------------------------------------------------------------------------------------
  Total      -7.56398    -7.56398    -2.72310     0.00000     0.00000    -0.00000
  in kB     -15.66697   -15.66697    -5.64024     0.00000     0.00000    -0.00000
  external pressure =      -12.32 kB  Pullay stress =        0.00 kB


 VOLUME and BASIS-vectors are now :
 -----------------------------------------------------------------------------
  energy-cutoff  :      600.00
  volume of cell :      773.53
      direct lattice vectors                 reciprocal lattice vectors
     5.112382028  0.000000000  0.000000000     0.195603536 -0.112931754  0.000000000
     2.556191014  4.427452710  0.000000000     0.000000000  0.225863508  0.000000000
     0.000000000  0.000000000 34.174242446     0.000000000  0.000000000  0.029261804

  length of vectors
     5.112382028  5.112382028 34.174242446     0.225863508  0.225863508  0.029261804


 FORCES acting on ions
    electron-ion (+dipol)            ewald-force                    non-local-force                 convergence-correction
 -----------------------------------------------------------------------------------------------
   -.383E+00 -.221E+00 0.318E+04   0.414E-01 0.239E-01 -.317E+04   0.284E+00 0.164E+00 -.168E+01   -.113E-02 -.651E-03 -.871E-01
   0.383E+00 -.221E+00 0.318E+04   -.414E-01 0.239E-01 -.317E+04   -.284E+00 0.164E+00 -.168E+01   0.113E-02 -.651E-03 -.871E-01
   0.274E-05 0.442E+00 0.318E+04   -.417E-08 -.478E-01 -.317E+04   -.112E-16 -.328E+00 -.168E+01   -.355E-08 0.130E-02 -.871E-01
   0.255E-05 0.147E-05 0.318E+04   0.502E-08 0.461E-08 -.317E+04   0.454E-17 -.996E-17 -.354E+01   -.144E-09 -.833E-10 -.809E-01
   -.257E-05 -.183E+01 0.359E+02   -.579E-08 0.924E+00 -.350E+02   0.292E-19 0.888E+00 -.763E+00   -.128E-07 0.291E-02 -.143E+00
   -.229E-05 -.132E-05 0.343E+02   0.456E-08 -.819E-08 -.339E+02   0.602E-19 -.200E-17 -.106E+00   0.202E-10 0.117E-10 -.141E+00
   0.158E+01 0.915E+00 0.359E+02   -.800E+00 -.462E+00 -.350E+02   -.769E+00 -.444E+00 -.763E+00   -.252E-02 -.146E-02 -.143E+00
   -.158E+01 0.915E+00 0.359E+02   0.800E+00 -.462E+00 -.350E+02   0.769E+00 -.444E+00 -.763E+00   0.252E-02 -.146E-02 -.143E+00
   -.813E-06 -.470E-06 -.306E+04   -.618E-08 -.249E-08 0.306E+04   0.681E-17 0.413E-17 -.621E+01   -.695E-09 -.402E-09 -.445E-01
   -.444E-06 -.249E-01 -.312E+04   0.517E-08 -.823E-08 0.311E+04   -.650E-17 0.321E-01 0.360E+01   -.111E-08 -.222E-02 -.627E-01
   -.216E-01 0.125E-01 -.312E+04   -.491E-08 0.813E-08 0.311E+04   0.278E-01 -.161E-01 0.360E+01   -.192E-02 0.111E-02 -.627E-01
   0.216E-01 0.125E-01 -.312E+04   0.611E-08 0.220E-08 0.311E+04   -.278E-01 -.161E-01 0.360E+01   0.192E-02 0.111E-02 -.627E-01
   -.127E-06 -.736E-07 -.430E+03   -.197E-09 -.111E-09 0.432E+03   -.208E-20 0.341E-19 -.197E+01   -.238E-10 -.138E-10 0.213E-02
 -----------------------------------------------------------------------------------------------
   -.511E-06 -.292E-06 0.948E+01   0.994E-13 -.356E-13 0.000E+00   -.333E-15 0.341E-19 -.835E+01   -.717E-09 -.414E-09 -.114E+01
 
 
 POSITION                                       TOTAL-FORCE (eV/Angst)
 -----------------------------------------------------------------------------------
      1.27810      0.73791     15.00000        -0.058729     -0.033907      0.161263
      3.83429      0.73791     15.00000         0.058729     -0.033907      0.161263
      2.55619      2.95164     15.00000        -0.000000      0.067815      0.161263
      5.11238      2.95164     15.00000         0.000000      0.000000      0.166381
      5.11238      1.47582     17.08712        -0.000000     -0.015539     -0.011897
      2.55619      1.47582     17.08712        -0.000000      0.000000      0.073772
      6.39048      3.68954     17.08712         0.013457      0.007769     -0.011897
      3.83429      3.68954     17.08712        -0.013457      0.007769     -0.011897
      0.00000      0.00000     19.17424        -0.000000      0.000000     -0.252450
      2.55619      0.00000     19.17424        -0.000000      0.004982     -0.144124
      1.27810      2.21373     19.17424         0.004315     -0.002491     -0.144124
      3.83429      2.21373     19.17424        -0.004315     -0.002491     -0.144124
      0.00000      0.00000     20.68418        -0.000000      0.000000     -0.003430
 -----------------------------------------------------------------------------------
    total drift:                               -0.000001     -0.000000     -0.013065


--------------------------------------------------------------------------------------------------------



  FREE ENERGIE OF THE ION-ELECTRON SYSTEM (eV)
  ---------------------------------------------------
  free  energy   TOTEN  =       -48.58118491 eV

  energy  without entropy=      -48.54318568  energy(sigma->0) =      -48.56218529
 
 d Force = 0.1173741E-06[-0.887E-06, 0.112E-05]  d Energy =-0.2928012E-04 0.294E-04
 d Force = 0.1117409E+00[ 0.112E+00, 0.112E+00]  d Ewald  = 0.1117409E+00 0.160E-09


--------------------------------------------------------------------------------------------------------


    POTLOK:  cpu time      0.0537: real time      0.0539


--------------------------------------------------------------------------------------------------------




--------------------------------------------------------------------------------------------------------


    WAVPRE:  cpu time      1.8510: real time      2.2750
    FEWALD:  cpu time      0.0003: real time      0.0004
    ORTHCH:  cpu time      0.2032: real time      0.2054
     LOOP+:  cpu time      8.0304: real time      8.5325


--------------------------------------- Iteration     12(   1)  ---------------------------------------


    POTLOK:  cpu time      0.0435: real time      0.0439
    SETDIJ:  cpu time      0.0041: real time      0.0041
     EDDAV:  cpu time      2.0343: real time      2.0540
       DOS:  cpu time      0.0011: real time      0.0011
    CHARGE:  cpu time      0.1057: real time      0.1065
    MIXING:  cpu time      0.0007: real time      0.0007
    --------------------------------------------
      LOOP:  cpu time      2.1894: real time      2.2103

 eigenvalue-minimisations  :  1696
 total energy-change (2. order) :-0.1401968E-05  (-0.2018729E-05)
 number of electron     133.0000045 magnetization      -0.0000764
 augmentation part       84.2734151 magnetization      -0.0000405

 Broyden mixing:
  rms(total) = 0.34531E-03    rms(broyden)= 0.34523E-03
  rms(prec ) = 0.35965E-03
  weight for this iteration     100.00

 Free energy of the ion-electron system (eV)
  ---------------------------------------------------
  alpha Z        PSCENC =       137.59429322
  Ewald energy   TEWEN  =    123746.55616640
  -Hartree energ DENC   =   -139160.21237067
  -exchange      EXHF   =         0.00000000
  -V(xc)+E(xc)   XCENC  =       536.25239830
  PAW double counting   =     15642.71219783   -16934.60814753
  entropy T*S    EENTRO =        -0.03804058
  eigenvalues    EBANDS =      -716.39419299
  atomic energy  EATOM  =     16704.21750749
  Solvation  Ecorr_sol  =         0.00000000
  ---------------------------------------------------
  free energy    TOTEN  =       -43.92018854 eV

  energy without entropy =      -43.88214796  energy(sigma->0) =      -43.90116825


--------------------------------------------------------------------------------------------------------




--------------------------------------- Iteration     12(   2)  ---------------------------------------


    POTLOK:  cpu time      0.0452: real time      0.0457
    SETDIJ:  cpu time      0.0032: real time      0.0032
     EDDAV:  cpu time      1.9769: real time      1.9962
       DOS:  cpu time      0.0013: real time      0.0013
    --------------------------------------------
      LOOP:  cpu time      2.0266: real time      2.0464

 eigenvalue-minimisations  :  1568
 total energy-change (2. order) :-0.3693625E-05  (-0.7208023E-06)
 number of electron     133.0000045 magnetization      -0.0000764
 augmentation part       84.2734151 magnetization      -0.0000405

 Free energy of the ion-electron system (eV)
  ---------------------------------------------------
  alpha Z        PSCENC =       137.59429322
  Ewald energy   TEWEN  =    123746.55616640
  -Hartree energ DENC   =   -139160.23681797
  -exchange      EXHF   =         0.00000000
  -V(xc)+E(xc)   XCENC  =       536.25238940
  PAW double counting   =     15642.64837974   -16934.54264959
  entropy T*S    EENTRO =        -0.03804443
  eigenvalues    EBANDS =      -716.37141650
  atomic energy  EATOM  =     16704.21750749
  Solvation  Ecorr_sol  =         0.00000000
  ---------------------------------------------------
  free energy    TOTEN  =       -43.92019223 eV

  energy without entropy =      -43.88214781  energy(sigma->0) =      -43.90117002


--------------------------------------------------------------------------------------------------------




 average (electrostatic) potential at core
  the test charge radii are     0.9430  0.5201
  (the norm of the test charge is              1.0000)
       1 -73.5738       2 -73.5738       3 -73.5738       4 -73.6105       5 -73.8335
       6 -73.8229       7 -73.8335       8 -73.8335       9 -74.0891      10 -73.5088
      11 -73.5088      12 -73.5088      13 -38.7852
 
 
 
 E-fermi :  -2.5604     XC(G=0):  -2.9578     alpha+bet : -2.4952

 Fermi energy:        -2.5603952306

 spin component 1

 k-point     1 :       0.0000    0.0000    0.0000
  band No.  band energies     occupation 
      1     -11.1653      1.00000
      2      -9.2801      1.00000
      3      -7.7573      1.00000
      4      -7.3797      1.00000
      5      -7.2638      1.00000
      6      -7.2638      1.00000
      7      -7.1198      1.00000
      8      -7.0651      1.00000
      9      -7.0651      1.00000
     10      -6.8095      1.00000
     11      -6.6932      1.00000
     12      -6.6932      1.00000
     13      -6.6470      1.00000
     14      -6.6470      1.00000
     15      -6.6405      1.00000
     16      -6.5015      1.00000
     17      -6.0608      1.00000
     18      -6.0608      1.00000
     19      -5.9147      1.00000
     20      -5.6383      1.00000
     21      -5.6383      1.00000
     22      -5.5943      1.00000
     23      -5.5447      1.00000
     24      -5.5016      1.00000
     25      -5.5016      1.00000
     26      -5.3332      1.00000
     27      -5.3332      1.00000
     28      -5.3115      1.00000
     29      -5.3007      1.00000
     30      -5.3007      1.00000
     31      -5.2674      1.00000
     32      -5.1995      1.00000
     33      -5.1994      1.00000
     34      -5.0433      1.00000
     35      -5.0433      1.00000
     36      -4.8470      1.00000
     37      -4.7971      1.00000
     38      -4.7971      1.00000
     39      -4.6548      1.00000
     40      -4.6548      1.00000
     41      -4.6171      1.00000
     42      -4.6162      1.00000
     43      -4.6162      1.00000
     44      -4.5666      1.00000
     45      -4.3786      1.00000
     46      -4.3786      1.00000
     47      -4.2515      1.00000
     48      -4.2515      1.00000
     49      -4.2029      1.00000
     50      -4.1947      1.00000
     51      -4.1587      1.00000
     52      -4.1587      1.00000
     53      -4.1462      1.00000
     54      -4.1462      1.00000
     55      -4.1210      1.00000
     56      -4.1210      1.00000
     57      -4.1157      1.00000
     58      -3.9869      1.00000
     59      -3.9869      1.00000
     60      -3.9085      1.00000
     61      -3.9085      1.00000
     62      -3.9014      1.00000
     63      -3.8468      1.00000
     64      -3.1889      1.00000
     65      -2.5024      0.10454
     66      -2.5024      0.10452
     67      -2.5020      0.10301
     68      -1.3986      0.00000
     69      -1.3986      0.00000
     70      -1.3695      0.00000
     71      -0.9834      0.00000
     72      -0.9653      0.00000
     73      -0.9653      0.00000
     74      -0.4948      0.00000
     75       1.6846      0.00000
     76       1.9499      0.00000
     77       1.9499      0.00000
     78       2.0253      0.00000
     79       2.1550      0.00000
     80       2.3207      0.00000
     81       2.6918      0.00000
     82       2.8818      0.00000
     83       3.1272      0.00000
     84       3.1272      0.00000
     85       3.5219      0.00000
     86       3.5914      0.00000
     87       3.8075      0.00000
     88       3.9034      0.00000
     89       3.9034      0.00000
     90       4.8191      0.00000
     91       4.9119      0.00000
     92       5.8256      0.00000
     93       6.3551      0.00000
     94       6.3555      0.00000
     95       6.3555      0.00000
     96       6.4553      0.00000

 k-point     2 :       0.2000    0.0000    0.0000
  band No.  band energies     occupation 
      1     -10.8496      1.00000
      2      -8.9886      1.00000
      3      -7.6074      1.00000
      4      -7.5061      1.00000
      5      -7.2838      1.00000
      6      -7.1884      1.00000
      7      -7.0972      1.00000
      8      -7.0157      1.00000
      9      -6.9587      1.00000
     10      -6.7685      1.00000
     11      -6.6487      1.00000
     12      -6.6187      1.00000
     13      -6.5646      1.00000
     14      -6.4901      1.00000
     15      -6.4820      1.00000
     16      -6.4032      1.00000
     17      -6.0495      1.00000
     18      -6.0237      1.00000
     19      -5.9074      1.00000
     20      -5.6463      1.00000
     21      -5.5860      1.00000
     22      -5.5858      1.00000
     23      -5.5652      1.00000
     24      -5.5373      1.00000
     25      -5.5102      1.00000
     26      -5.4318      1.00000
     27      -5.4016      1.00000
     28      -5.3948      1.00000
     29      -5.2813      1.00000
     30      -5.2761      1.00000
     31      -5.2371      1.00000
     32      -5.2288      1.00000
     33      -5.1799      1.00000
     34      -5.1428      1.00000
     35      -5.1082      1.00000
     36      -5.0944      1.00000
     37      -4.9041      1.00000
     38      -4.8625      1.00000
     39      -4.7740      1.00000
     40      -4.7165      1.00000
     41      -4.7088      1.00000
     42      -4.6599      1.00000
     43      -4.6518      1.00000
     44      -4.5966      1.00000
     45      -4.5691      1.00000
     46      -4.4577      1.00000
     47      -4.4416      1.00000
     48      -4.3868      1.00000
     49      -4.3737      1.00000
     50      -4.3062      1.00000
     51      -4.2983      1.00000
     52      -4.2895      1.00000
     53      -4.2590      1.00000
     54      -4.2435      1.00000
     55      -4.2233      1.00000
     56      -4.1898      1.00000
     57      -4.1408      1.00000
     58      -4.1167      1.00000
     59      -4.0707      1.00000
     60      -4.0663      1.00000
     61      -4.0276      1.00000
     62      -3.9989      1.00000
     63      -3.9501      1.00000
     64      -3.8385      1.00000
     65      -2.9904      1.00000
     66      -2.5966      0.79256
     67      -2.5502      0.40636
     68      -2.5001      0.09665
     69      -1.5265      0.00000
     70      -1.4801      0.00000
     71      -0.7296      0.00000
     72      -0.0434      0.00000
     73       0.0328      0.00000
     74       0.5664      0.00000
     75       1.9856      0.00000
     76       2.3072      0.00000
     77       2.3366      0.00000
     78       2.4372      0.00000
     79       2.6223      0.00000
     80       2.7198      0.00000
     81       2.9988      0.00000
     82       3.1548      0.00000
     83       3.1686      0.00000
     84       3.3161      0.00000
     85       3.8490      0.00000
     86       3.9486      0.00000
     87       4.1536      0.00000
     88       4.4782      0.00000
     89       4.6292      0.00000
     90       5.1368      0.00000
     91       5.2094      0.00000
     92       5.9817      0.00000
     93       6.0294      0.00000
     94       6.2473      0.00000
     95       6.5855      0.00000
     96       6.6731      0.00000

 k-point     3 :       0.4000    0.0000    0.0000
  band No.  band energies     occupation 
      1      -9.9460      1.00000
      2      -8.6600      1.00000
      3      -8.1994      1.00000
      4      -7.4042      1.00000
      5      -7.0937      1.00000
      6      -7.0190      1.00000
      7      -6.9256      1.00000
      8      -6.8677      1.00000
      9      -6.7356      1.00000
     10      -6.6347      1.00000
     11      -6.5631      1.00000
     12      -6.4134      1.00000
     13      -6.3564      1.00000
     14      -6.2295      1.00000
     15      -6.2165      1.00000
     16      -6.1402      1.00000
     17      -5.9701      1.00000
     18      -5.9477      1.00000
     19      -5.9040      1.00000
     20      -5.8864      1.00000
     21      -5.8130      1.00000
     22      -5.8062      1.00000
     23      -5.7144      1.00000
     24      -5.5897      1.00000
     25      -5.5695      1.00000
     26      -5.4536      1.00000
     27      -5.4362      1.00000
     28      -5.4295      1.00000
     29      -5.3873      1.00000
     30      -5.3335      1.00000
     31      -5.2963      1.00000
     32      -5.2557      1.00000
     33      -5.2068      1.00000
     34      -5.1974      1.00000
     35      -5.1579      1.00000
     36      -5.1402      1.00000
     37      -5.1353      1.00000
     38      -5.0732      1.00000
     39      -5.0608      1.00000
     40      -5.0409      1.00000
     41      -5.0385      1.00000
     42      -4.9778      1.00000
     43      -4.8022      1.00000
     44      -4.7906      1.00000
     45      -4.7668      1.00000
     46      -4.7450      1.00000
     47      -4.7145      1.00000
     48      -4.6649      1.00000
     49      -4.5997      1.00000
     50      -4.5651      1.00000
     51      -4.5402      1.00000
     52      -4.5165      1.00000
     53      -4.4200      1.00000
     54      -4.3932      1.00000
     55      -4.3919      1.00000
     56      -4.3765      1.00000
     57      -4.3434      1.00000
     58      -4.2620      1.00000
     59      -4.1772      1.00000
     60      -4.1379      1.00000
     61      -4.1207      1.00000
     62      -4.1132      1.00000
     63      -4.0538      1.00000
     64      -4.0426      1.00000
     65      -3.3245      1.00000
     66      -2.5837      0.70331
     67      -2.5455      0.36569
     68      -2.2021      0.00000
     69      -1.4948      0.00000
     70      -1.4108      0.00000
     71      -1.0120      0.00000
     72       0.2429      0.00000
     73       0.9527      0.00000
     74       1.1292      0.00000
     75       2.2713      0.00000
     76       2.9708      0.00000
     77       3.2729      0.00000
     78       3.3267      0.00000
     79       3.4495      0.00000
     80       3.5470      0.00000
     81       3.9265      0.00000
     82       4.0681      0.00000
     83       4.1284      0.00000
     84       4.3015      0.00000
     85       4.7670      0.00000
     86       4.8339      0.00000
     87       4.8767      0.00000
     88       5.0340      0.00000
     89       5.0711      0.00000
     90       5.2215      0.00000
     91       5.4260      0.00000
     92       5.5186      0.00000
     93       5.8734      0.00000
     94       6.0087      0.00000
     95       6.0497      0.00000
     96       6.0674      0.00000

 k-point     4 :       0.4000    0.2000    0.0000
  band No.  band energies     occupation 
      1     -10.2379      1.00000
      2      -8.4559      1.00000
      3      -7.8808      1.00000
      4      -7.8244      1.00000
      5      -7.1984      1.00000
      6      -7.0649      1.00000
      7      -7.0109      1.00000
      8      -6.8403      1.00000
      9      -6.7811      1.00000
     10      -6.6139      1.00000
     11      -6.5242      1.00000
     12      -6.4814      1.00000
     13      -6.4166      1.00000
     14      -6.2814      1.00000
     15      -6.2727      1.00000
     16      -6.2213      1.00000
     17      -6.0074      1.00000
     18      -5.9886      1.00000
     19      -5.9220      1.00000
     20      -5.8229      1.00000
     21      -5.7232      1.00000
     22      -5.6940      1.00000
     23      -5.6471      1.00000
     24      -5.6347      1.00000
     25      -5.5487      1.00000
     26      -5.4855      1.00000
     27      -5.4319      1.00000
     28      -5.3875      1.00000
     29      -5.3529      1.00000
     30      -5.3464      1.00000
     31      -5.3206      1.00000
     32      -5.3038      1.00000
     33      -5.2501      1.00000
     34      -5.1863      1.00000
     35      -5.1469      1.00000
     36      -5.0927      1.00000
     37      -5.0498      1.00000
     38      -5.0059      1.00000
     39      -4.9603      1.00000
     40      -4.9408      1.00000
     41      -4.8795      1.00000
     42      -4.8654      1.00000
     43      -4.8419      1.00000
     44      -4.7850      1.00000
     45      -4.7546      1.00000
     46      -4.7154      1.00000
     47      -4.6575      1.00000
     48      -4.6084      1.00000
     49      -4.5770      1.00000
     50      -4.5648      1.00000
     51      -4.4724      1.00000
     52      -4.4469      1.00000
     53      -4.3780      1.00000
     54      -4.3450      1.00000
     55      -4.2773      1.00000
     56      -4.2691      1.00000
     57      -4.2121      1.00000
     58      -4.2017      1.00000
     59      -4.1707      1.00000
     60      -4.1568      1.00000
     61      -4.1451      1.00000
     62      -4.1151      1.00000
     63      -3.8346      1.00000
     64      -3.8264      1.00000
     65      -3.6662      1.00000
     66      -3.1975      1.00000
     67      -3.1101      1.00000
     68      -1.9766      0.00000
     69      -0.8309      0.00000
     70      -0.7705      0.00000
     71      -0.6769      0.00000
     72      -0.1308      0.00000
     73       0.5608      0.00000
     74       0.9063      0.00000
     75       2.4409      0.00000
     76       2.4857      0.00000
     77       2.5436      0.00000
     78       2.9614      0.00000
     79       3.2172      0.00000
     80       3.3411      0.00000
     81       3.6201      0.00000
     82       3.7776      0.00000
     83       4.1720      0.00000
     84       4.4292      0.00000
     85       4.4867      0.00000
     86       4.4906      0.00000
     87       4.6494      0.00000
     88       5.0556      0.00000
     89       5.3172      0.00000
     90       5.6542      0.00000
     91       5.7545      0.00000
     92       5.7960      0.00000
     93       6.0262      0.00000
     94       6.1143      0.00000
     95       6.1974      0.00000
     96       6.2695      0.00000

 k-point     5 :      -0.4000    0.2000    0.0000
  band No.  band energies     occupation 
      1      -9.1509      1.00000
      2      -9.0847      1.00000
      3      -7.9856      1.00000
      4      -7.6697      1.00000
      5      -7.4696      1.00000
      6      -7.0197      1.00000
      7      -6.7482      1.00000
      8      -6.5530      1.00000
      9      -6.5177      1.00000
     10      -6.5057      1.00000
     11      -6.4907      1.00000
     12      -6.2749      1.00000
     13      -6.2468      1.00000
     14      -6.2277      1.00000
     15      -6.1957      1.00000
     16      -6.0671      1.00000
     17      -6.0306      1.00000
     18      -6.0027      1.00000
     19      -5.9770      1.00000
     20      -5.9099      1.00000
     21      -5.8699      1.00000
     22      -5.7822      1.00000
     23      -5.7227      1.00000
     24      -5.6615      1.00000
     25      -5.6255      1.00000
     26      -5.6056      1.00000
     27      -5.5761      1.00000
     28      -5.5487      1.00000
     29      -5.5279      1.00000
     30      -5.4719      1.00000
     31      -5.4126      1.00000
     32      -5.3629      1.00000
     33      -5.3167      1.00000
     34      -5.2759      1.00000
     35      -5.2458      1.00000
     36      -5.2246      1.00000
     37      -5.1701      1.00000
     38      -5.1614      1.00000
     39      -5.1338      1.00000
     40      -5.0595      1.00000
     41      -5.0224      1.00000
     42      -4.9157      1.00000
     43      -4.8389      1.00000
     44      -4.7886      1.00000
     45      -4.7360      1.00000
     46      -4.7086      1.00000
     47      -4.6780      1.00000
     48      -4.6465      1.00000
     49      -4.6317      1.00000
     50      -4.5633      1.00000
     51      -4.5000      1.00000
     52      -4.4653      1.00000
     53      -4.4174      1.00000
     54      -4.4101      1.00000
     55      -4.3592      1.00000
     56      -4.3350      1.00000
     57      -4.3275      1.00000
     58      -4.2389      1.00000
     59      -4.2077      1.00000
     60      -4.1980      1.00000
     61      -4.1770      1.00000
     62      -4.1401      1.00000
     63      -4.1212      1.00000
     64      -4.0685      1.00000
     65      -3.7620      1.00000
     66      -3.3817      1.00000
     67      -2.8608      0.99999
     68      -2.0775      0.00000
     69      -1.2266      0.00000
     70      -0.4969      0.00000
     71      -0.2668      0.00000
     72       0.5966      0.00000
     73       0.9118      0.00000
     74       1.7366      0.00000
     75       2.2403      0.00000
     76       2.4090      0.00000
     77       2.9624      0.00000
     78       3.6185      0.00000
     79       3.6907      0.00000
     80       3.9885      0.00000
     81       4.1554      0.00000
     82       4.2538      0.00000
     83       4.3047      0.00000
     84       4.4534      0.00000
     85       4.4692      0.00000
     86       4.8131      0.00000
     87       4.8610      0.00000
     88       4.9313      0.00000
     89       4.9508      0.00000
     90       4.9570      0.00000
     91       5.5435      0.00000
     92       5.6739      0.00000
     93       5.7376      0.00000
     94       5.7650      0.00000
     95       5.8323      0.00000
     96       5.9276      0.00000
 Fermi energy:        -2.5603952306

 spin component 2

 k-point     1 :       0.0000    0.0000    0.0000
  band No.  band energies     occupation 
      1     -11.1653      1.00000
      2      -9.2801      1.00000
      3      -7.7573      1.00000
      4      -7.3798      1.00000
      5      -7.2638      1.00000
      6      -7.2638      1.00000
      7      -7.1198      1.00000
      8      -7.0651      1.00000
      9      -7.0651      1.00000
     10      -6.8095      1.00000
     11      -6.6932      1.00000
     12      -6.6932      1.00000
     13      -6.6470      1.00000
     14      -6.6470      1.00000
     15      -6.6405      1.00000
     16      -6.5015      1.00000
     17      -6.0608      1.00000
     18      -6.0608      1.00000
     19      -5.9147      1.00000
     20      -5.6383      1.00000
     21      -5.6383      1.00000
     22      -5.5943      1.00000
     23      -5.5447      1.00000
     24      -5.5016      1.00000
     25      -5.5016      1.00000
     26      -5.3332      1.00000
     27      -5.3332      1.00000
     28      -5.3115      1.00000
     29      -5.3007      1.00000
     30      -5.3007      1.00000
     31      -5.2674      1.00000
     32      -5.1995      1.00000
     33      -5.1995      1.00000
     34      -5.0433      1.00000
     35      -5.0433      1.00000
     36      -4.8470      1.00000
     37      -4.7971      1.00000
     38      -4.7971      1.00000
     39      -4.6548      1.00000
     40      -4.6548      1.00000
     41      -4.6171      1.00000
     42      -4.6162      1.00000
     43      -4.6162      1.00000
     44      -4.5666      1.00000
     45      -4.3786      1.00000
     46      -4.3786      1.00000
     47      -4.2515      1.00000
     48      -4.2515      1.00000
     49      -4.2029      1.00000
     50      -4.1947      1.00000
     51      -4.1587      1.00000
     52      -4.1587      1.00000
     53      -4.1462      1.00000
     54      -4.1462      1.00000
     55      -4.1210      1.00000
     56      -4.1210      1.00000
     57      -4.1157      1.00000
     58      -3.9869      1.00000
     59      -3.9869      1.00000
     60      -3.9085      1.00000
     61      -3.9085      1.00000
     62      -3.9014      1.00000
     63      -3.8468      1.00000
     64      -3.1889      1.00000
     65      -2.5024      0.10456
     66      -2.5024      0.10454
     67      -2.5020      0.10303
     68      -1.3986      0.00000
     69      -1.3986      0.00000
     70      -1.3695      0.00000
     71      -0.9834      0.00000
     72      -0.9653      0.00000
     73      -0.9653      0.00000
     74      -0.4948      0.00000
     75       1.6838      0.00000
     76       1.9499      0.00000
     77       1.9499      0.00000
     78       2.0233      0.00000
     79       2.1551      0.00000
     80       2.3210      0.00000
     81       2.6922      0.00000
     82       2.8818      0.00000
     83       3.1272      0.00000
     84       3.1272      0.00000
     85       3.5217      0.00000
     86       3.5908      0.00000
     87       3.8066      0.00000
     88       3.9034      0.00000
     89       3.9034      0.00000
     90       4.8182      0.00000
     91       4.9120      0.00000
     92       5.8256      0.00000
     93       6.3548      0.00000
     94       6.3555      0.00000
     95       6.3555      0.00000
     96       6.4547      0.00000

 k-point     2 :       0.2000    0.0000    0.0000
  band No.  band energies     occupation 
      1     -10.8496      1.00000
      2      -8.9886      1.00000
      3      -7.6074      1.00000
      4      -7.5061      1.00000
      5      -7.2838      1.00000
      6      -7.1884      1.00000
      7      -7.0973      1.00000
      8      -7.0157      1.00000
      9      -6.9587      1.00000
     10      -6.7685      1.00000
     11      -6.6487      1.00000
     12      -6.6187      1.00000
     13      -6.5646      1.00000
     14      -6.4901      1.00000
     15      -6.4820      1.00000
     16      -6.4032      1.00000
     17      -6.0495      1.00000
     18      -6.0237      1.00000
     19      -5.9074      1.00000
     20      -5.6463      1.00000
     21      -5.5860      1.00000
     22      -5.5858      1.00000
     23      -5.5652      1.00000
     24      -5.5373      1.00000
     25      -5.5103      1.00000
     26      -5.4318      1.00000
     27      -5.4016      1.00000
     28      -5.3948      1.00000
     29      -5.2813      1.00000
     30      -5.2761      1.00000
     31      -5.2371      1.00000
     32      -5.2288      1.00000
     33      -5.1799      1.00000
     34      -5.1428      1.00000
     35      -5.1082      1.00000
     36      -5.0944      1.00000
     37      -4.9041      1.00000
     38      -4.8625      1.00000
     39      -4.7740      1.00000
     40      -4.7165      1.00000
     41      -4.7088      1.00000
     42      -4.6599      1.00000
     43      -4.6518      1.00000
     44      -4.5966      1.00000
     45      -4.5691      1.00000
     46      -4.4577      1.00000
     47      -4.4416      1.00000
     48      -4.3868      1.00000
     49      -4.3737      1.00000
     50      -4.3062      1.00000
     51      -4.2983      1.00000
     52      -4.2895      1.00000
     53      -4.2590      1.00000
     54      -4.2435      1.00000
     55      -4.2233      1.00000
     56      -4.1898      1.00000
     57      -4.1408      1.00000
     58      -4.1167      1.00000
     59      -4.0707      1.00000
     60      -4.0663      1.00000
     61      -4.0276      1.00000
     62      -3.9989      1.00000
     63      -3.9501      1.00000
     64      -3.8385      1.00000
     65      -2.9904      1.00000
     66      -2.5966      0.79259
     67      -2.5502      0.40641
     68      -2.5001      0.09668
     69      -1.5265      0.00000
     70      -1.4801      0.00000
     71      -0.7296      0.00000
     72      -0.0434      0.00000
     73       0.0328      0.00000
     74       0.5664      0.00000
     75       1.9848      0.00000
     76       2.3072      0.00000
     77       2.3348      0.00000
     78       2.4372      0.00000
     79       2.6226      0.00000
     80       2.7198      0.00000
     81       2.9992      0.00000
     82       3.1548      0.00000
     83       3.1685      0.00000
     84       3.3161      0.00000
     85       3.8485      0.00000
     86       3.9481      0.00000
     87       4.1529      0.00000
     88       4.4781      0.00000
     89       4.6292      0.00000
     90       5.1359      0.00000
     91       5.2094      0.00000
     92       5.9816      0.00000
     93       6.0293      0.00000
     94       6.2470      0.00000
     95       6.5849      0.00000
     96       6.6730      0.00000

 k-point     3 :       0.4000    0.0000    0.0000
  band No.  band energies     occupation 
      1      -9.9460      1.00000
      2      -8.6600      1.00000
      3      -8.1994      1.00000
      4      -7.4042      1.00000
      5      -7.0937      1.00000
      6      -7.0190      1.00000
      7      -6.9256      1.00000
      8      -6.8677      1.00000
      9      -6.7356      1.00000
     10      -6.6347      1.00000
     11      -6.5631      1.00000
     12      -6.4134      1.00000
     13      -6.3564      1.00000
     14      -6.2295      1.00000
     15      -6.2165      1.00000
     16      -6.1402      1.00000
     17      -5.9701      1.00000
     18      -5.9477      1.00000
     19      -5.9040      1.00000
     20      -5.8864      1.00000
     21      -5.8130      1.00000
     22      -5.8062      1.00000
     23      -5.7144      1.00000
     24      -5.5897      1.00000
     25      -5.5696      1.00000
     26      -5.4536      1.00000
     27      -5.4362      1.00000
     28      -5.4295      1.00000
     29      -5.3873      1.00000
     30      -5.3335      1.00000
     31      -5.2963      1.00000
     32      -5.2557      1.00000
     33      -5.2068      1.00000
     34      -5.1974      1.00000
     35      -5.1579      1.00000
     36      -5.1402      1.00000
     37      -5.1353      1.00000
     38      -5.0732      1.00000
     39      -5.0608      1.00000
     40      -5.0409      1.00000
     41      -5.0385      1.00000
     42      -4.9778      1.00000
     43      -4.8022      1.00000
     44      -4.7906      1.00000
     45      -4.7668      1.00000
     46      -4.7450      1.00000
     47      -4.7145      1.00000
     48      -4.6649      1.00000
     49      -4.5998      1.00000
     50      -4.5651      1.00000
     51      -4.5402      1.00000
     52      -4.5165      1.00000
     53      -4.4200      1.00000
     54      -4.3932      1.00000
     55      -4.3919      1.00000
     56      -4.3765      1.00000
     57      -4.3434      1.00000
     58      -4.2620      1.00000
     59      -4.1772      1.00000
     60      -4.1379      1.00000
     61      -4.1207      1.00000
     62      -4.1132      1.00000
     63      -4.0538      1.00000
     64      -4.0426      1.00000
     65      -3.3245      1.00000
     66      -2.5837      0.70334
     67      -2.5455      0.36573
     68      -2.2021      0.00000
     69      -1.4948      0.00000
     70      -1.4108      0.00000
     71      -1.0120      0.00000
     72       0.2429      0.00000
     73       0.9527      0.00000
     74       1.1292      0.00000
     75       2.2712      0.00000
     76       2.9701      0.00000
     77       3.2712      0.00000
     78       3.3267      0.00000
     79       3.4496      0.00000
     80       3.5472      0.00000
     81       3.9268      0.00000
     82       4.0678      0.00000
     83       4.1280      0.00000
     84       4.3014      0.00000
     85       4.7658      0.00000
     86       4.8328      0.00000
     87       4.8760      0.00000
     88       5.0337      0.00000
     89       5.0712      0.00000
     90       5.2215      0.00000
     91       5.4263      0.00000
     92       5.5180      0.00000
     93       5.8733      0.00000
     94       6.0087      0.00000
     95       6.0490      0.00000
     96       6.0674      0.00000

 k-point     4 :       0.4000    0.2000    0.0000
  band No.  band energies     occupation 
      1     -10.2379      1.00000
      2      -8.4559      1.00000
      3      -7.8808      1.00000
      4      -7.8244      1.00000
      5      -7.1984      1.00000
      6      -7.0649      1.00000
      7      -7.0109      1.00000
      8      -6.8403      1.00000
      9      -6.7811      1.00000
     10      -6.6139      1.00000
     11      -6.5242      1.00000
     12      -6.4814      1.00000
     13      -6.4166      1.00000
     14      -6.2814      1.00000
     15      -6.2727      1.00000
     16      -6.2213      1.00000
     17      -6.0074      1.00000
     18      -5.9886      1.00000
     19      -5.9220      1.00000
     20      -5.8229      1.00000
     21      -5.7232      1.00000
     22      -5.6940      1.00000
     23      -5.6471      1.00000
     24      -5.6347      1.00000
     25      -5.5487      1.00000
     26      -5.4855      1.00000
     27      -5.4319      1.00000
     28      -5.3875      1.00000
     29      -5.3529      1.00000
     30      -5.3464      1.00000
     31      -5.3206      1.00000
     32      -5.3038      1.00000
     33      -5.2501      1.00000
     34      -5.1863      1.00000
     35      -5.1469      1.00000
     36      -5.0927      1.00000
     37      -5.0498      1.00000
     38      -5.0059      1.00000
     39      -4.9603      1.00000
     40      -4.9408      1.00000
     41      -4.8795      1.00000
     42      -4.8654      1.00000
     43      -4.8419      1.00000
     44      -4.7850      1.00000
     45      -4.7546      1.00000
     46      -4.7154      1.00000
     47      -4.6575      1.00000
     48      -4.6084      1.00000
     49      -4.5770      1.00000
     50      -4.5648      1.00000
     51      -4.4724      1.00000
     52      -4.4469      1.00000
     53      -4.3780      1.00000
     54      -4.3450      1.00000
     55      -4.2773      1.00000
     56      -4.2691      1.00000
     57      -4.2121      1.00000
     58      -4.2017      1.00000
     59      -4.1707      1.00000
     60      -4.1568      1.00000
     61      -4.1451      1.00000
     62      -4.1151      1.00000
     63      -3.8346      1.00000
     64      -3.8264      1.00000
     65      -3.6662      1.00000
     66      -3.1975      1.00000
     67      -3.1101      1.00000
     68      -1.9766      0.00000
     69      -0.8309      0.00000
     70      -0.7705      0.00000
     71      -0.6769      0.00000
     72      -0.1308      0.00000
     73       0.5608      0.00000
     74       0.9063      0.00000
     75       2.4408      0.00000
     76       2.4852      0.00000
     77       2.5436      0.00000
     78       2.9595      0.00000
     79       3.2176      0.00000
     80       3.3410      0.00000
     81       3.6205      0.00000
     82       3.7774      0.00000
     83       4.1720      0.00000
     84       4.4291      0.00000
     85       4.4861      0.00000
     86       4.4905      0.00000
     87       4.6487      0.00000
     88       5.0553      0.00000
     89       5.3168      0.00000
     90       5.6539      0.00000
     91       5.7539      0.00000
     92       5.7958      0.00000
     93       6.0250      0.00000
     94       6.1123      0.00000
     95       6.1961      0.00000
     96       6.2697      0.00000

 k-point     5 :      -0.4000    0.2000    0.0000
  band No.  band energies     occupation 
      1      -9.1509      1.00000
      2      -9.0847      1.00000
      3      -7.9856      1.00000
      4      -7.6697      1.00000
      5      -7.4696      1.00000
      6      -7.0198      1.00000
      7      -6.7482      1.00000
      8      -6.5530      1.00000
      9      -6.5177      1.00000
     10      -6.5057      1.00000
     11      -6.4907      1.00000
     12      -6.2749      1.00000
     13      -6.2468      1.00000
     14      -6.2277      1.00000
     15      -6.1957      1.00000
     16      -6.0671      1.00000
     17      -6.0306      1.00000
     18      -6.0027      1.00000
     19      -5.9770      1.00000
     20      -5.9099      1.00000
     21      -5.8699      1.00000
     22      -5.7822      1.00000
     23      -5.7227      1.00000
     24      -5.6615      1.00000
     25      -5.6255      1.00000
     26      -5.6056      1.00000
     27      -5.5761      1.00000
     28      -5.5487      1.00000
     29      -5.5279      1.00000
     30      -5.4719      1.00000
     31      -5.4126      1.00000
     32      -5.3629      1.00000
     33      -5.3167      1.00000
     34      -5.2759      1.00000
     35      -5.2458      1.00000
     36      -5.2246      1.00000
     37      -5.1701      1.00000
     38      -5.1614      1.00000
     39      -5.1338      1.00000
     40      -5.0595      1.00000
     41      -5.0224      1.00000
     42      -4.9157      1.00000
     43      -4.8389      1.00000
     44      -4.7886      1.00000
     45      -4.7360      1.00000
     46      -4.7086      1.00000
     47      -4.6780      1.00000
     48      -4.6465      1.00000
     49      -4.6317      1.00000
     50      -4.5634      1.00000
     51      -4.5000      1.00000
     52      -4.4653      1.00000
     53      -4.4174      1.00000
     54      -4.4101      1.00000
     55      -4.3592      1.00000
     56      -4.3350      1.00000
     57      -4.3275      1.00000
     58      -4.2389      1.00000
     59      -4.2077      1.00000
     60      -4.1980      1.00000
     61      -4.1770      1.00000
     62      -4.1401      1.00000
     63      -4.1212      1.00000
     64      -4.0685      1.00000
     65      -3.7620      1.00000
     66      -3.3817      1.00000
     67      -2.8608      0.99999
     68      -2.0775      0.00000
     69      -1.2266      0.00000
     70      -0.4969      0.00000
     71      -0.2668      0.00000
     72       0.5966      0.00000
     73       0.9118      0.00000
     74       1.7365      0.00000
     75       2.2403      0.00000
     76       2.4090      0.00000
     77       2.9623      0.00000
     78       3.6178      0.00000
     79       3.6906      0.00000
     80       3.9883      0.00000
     81       4.1534      0.00000
     82       4.2522      0.00000
     83       4.3047      0.00000
     84       4.4537      0.00000
     85       4.4695      0.00000
     86       4.8135      0.00000
     87       4.8613      0.00000
     88       4.9310      0.00000
     89       4.9503      0.00000
     90       4.9566      0.00000
     91       5.5436      0.00000
     92       5.6727      0.00000
     93       5.7370      0.00000
     94       5.7635      0.00000
     95       5.8316      0.00000
     96       5.9271      0.00000


--------------------------------------------------------------------------------------------------------


 soft charge-density along one line, spin component           1
         0         1         2         3         4         5         6         7         8         9
 total charge-density along one line
 
 soft charge-density along one line, spin component           2
         0         1         2         3         4         5         6         7         8         9
 total charge-density along one line
 
 pseudopotential strength for first ion, spin component:           1
-10.094  -0.003  -0.005  -0.005   0.000   0.714   0.002   0.003
 -0.003 -10.062  -0.002   0.005  -0.002   0.002   0.688   0.002
 -0.005  -0.002 -10.055  -0.004  -0.003   0.003   0.002   0.682
 -0.005   0.005  -0.004 -10.057  -0.003   0.004  -0.003   0.003
  0.000  -0.002  -0.003  -0.003 -10.094  -0.000   0.001   0.002
  0.714   0.002   0.003   0.004  -0.000   6.487  -0.002  -0.002
  0.002   0.688   0.002  -0.003   0.001  -0.002   6.505  -0.001
  0.003   0.002   0.682   0.003   0.002  -0.002  -0.001   6.510
  0.004  -0.003   0.003   0.684   0.002  -0.003   0.002  -0.002
 -0.000   0.001   0.002   0.002   0.714   0.000  -0.001  -0.001
 -0.001   0.001  -0.007   0.001  -0.000   0.000  -0.000   0.002
 -0.001   0.001  -0.014   0.002  -0.001   0.001  -0.000   0.004
  0.002  -0.008  -0.001   0.000  -0.001  -0.001   0.009   0.000
  0.000   0.001  -0.008   0.002   0.000  -0.000  -0.001   0.008
  0.001   0.000  -0.001  -0.008   0.002  -0.001  -0.000   0.001
  0.003  -0.010  -0.001   0.000  -0.001  -0.002   0.011   0.001
  0.000   0.002  -0.008   0.003   0.000  -0.000  -0.001   0.010
  0.002   0.000  -0.002  -0.009   0.003  -0.001  -0.000   0.001
 pseudopotential strength for first ion, spin component:           2
-10.094  -0.003  -0.005  -0.005   0.000   0.714   0.002   0.003
 -0.003 -10.062  -0.002   0.005  -0.002   0.002   0.688   0.002
 -0.005  -0.002 -10.055  -0.004  -0.003   0.003   0.002   0.682
 -0.005   0.005  -0.004 -10.057  -0.003   0.004  -0.003   0.003
  0.000  -0.002  -0.003  -0.003 -10.094  -0.000   0.001   0.002
  0.714   0.002   0.003   0.004  -0.000   6.487  -0.002  -0.002
  0.002   0.688   0.002  -0.003   0.001  -0.002   6.505  -0.001
  0.003   0.002   0.682   0.003   0.002  -0.002  -0.001   6.510
  0.004  -0.003   0.003   0.684   0.002  -0.003   0.002  -0.002
 -0.000   0.001   0.002   0.002   0.714   0.000  -0.001  -0.001
 -0.001   0.001  -0.007   0.001  -0.000   0.000  -0.000   0.002
 -0.001   0.001  -0.014   0.002  -0.001   0.001  -0.000   0.004
  0.002  -0.008  -0.001   0.000  -0.001  -0.001   0.009   0.000
  0.000   0.001  -0.008   0.002   0.000  -0.000  -0.001   0.008
  0.001   0.000  -0.001  -0.008   0.002  -0.001  -0.000   0.001
  0.003  -0.010  -0.001   0.000  -0.001  -0.002   0.011   0.001
  0.000   0.002  -0.008   0.003   0.000  -0.000  -0.001   0.010
  0.002   0.000  -0.002  -0.009   0.003  -0.001  -0.000   0.001
 total augmentation occupancy for first ion, spin component:           1
  1.908  -0.001   0.000  -0.005   0.001  -0.016   0.000   0.000   0.004  -0.000  -0.004  -0.001  -0.001   0.002   0.005   0.001
 -0.001   1.923  -0.003   0.002  -0.003   0.000  -0.032   0.001  -0.000   0.004  -0.007  -0.000   0.006   0.002   0.002  -0.008
  0.000  -0.003   1.924  -0.005   0.000   0.000   0.001  -0.028   0.001   0.000   0.003   0.014  -0.001   0.051  -0.001  -0.000
 -0.005   0.002  -0.005   1.925  -0.001   0.004  -0.000   0.001  -0.033   0.000  -0.011  -0.000   0.002   0.003   0.008   0.000
  0.001  -0.003   0.000  -0.001   1.907  -0.000   0.004   0.000   0.000  -0.016  -0.002  -0.001   0.006   0.001  -0.001  -0.001
 -0.016   0.000   0.000   0.004  -0.000   0.014  -0.000   0.000   0.000   0.000   0.000   0.000   0.000  -0.000   0.003  -0.000
  0.000  -0.032   0.001  -0.000   0.004  -0.000   0.010  -0.000   0.000   0.000   0.002   0.000   0.017  -0.000  -0.001  -0.001
  0.000   0.001  -0.028   0.001   0.000   0.000  -0.000   0.013  -0.000   0.000  -0.044   0.002   0.000   0.022   0.001   0.000
  0.004  -0.000   0.001  -0.033   0.000   0.000   0.000  -0.000   0.010  -0.000   0.003   0.000  -0.001  -0.001   0.017   0.000
 -0.000   0.004   0.000   0.000  -0.016   0.000   0.000   0.000  -0.000   0.014   0.000   0.000   0.003  -0.000   0.000  -0.000
 -0.004  -0.007   0.003  -0.011  -0.002   0.000   0.002  -0.044   0.003   0.000   1.711  -0.134  -0.002   0.127  -0.004   0.000
 -0.001  -0.000   0.014  -0.000  -0.001   0.000   0.000   0.002   0.000   0.000  -0.134   0.017  -0.000  -0.023  -0.001  -0.000
 -0.001   0.006  -0.001   0.002   0.006   0.000   0.017   0.000  -0.001   0.003  -0.002  -0.000   0.209   0.002   0.003  -0.013
  0.002   0.002   0.051   0.003   0.001  -0.000  -0.000   0.022  -0.001  -0.000   0.127  -0.023   0.002   0.124   0.004  -0.000
  0.005   0.002  -0.001   0.008  -0.001   0.003  -0.001   0.001   0.017   0.000  -0.004  -0.001   0.003   0.004   0.212  -0.000
  0.001  -0.008  -0.000   0.000  -0.001  -0.000  -0.001   0.000   0.000  -0.000   0.000  -0.000  -0.013  -0.000  -0.000   0.001
  0.000   0.001  -0.013   0.001   0.000   0.000  -0.000  -0.001  -0.000   0.000  -0.018   0.002  -0.000  -0.008  -0.000  -0.000
  0.000   0.000  -0.001  -0.008   0.001  -0.000   0.000   0.000  -0.001  -0.000   0.000  -0.000  -0.000  -0.000  -0.013  -0.000
 total augmentation occupancy for first ion, spin component:           2
 -0.000  -0.000   0.000   0.000   0.000   0.000   0.000  -0.000  -0.000  -0.000  -0.000  -0.000   0.000  -0.000  -0.000  -0.000
 -0.000  -0.000   0.000  -0.000   0.000   0.000  -0.000   0.000  -0.000  -0.000  -0.000   0.000   0.000   0.000   0.000   0.000
  0.000   0.000  -0.000   0.000   0.000  -0.000   0.000   0.000   0.000  -0.000   0.000   0.000  -0.000   0.000  -0.000   0.000
  0.000  -0.000   0.000  -0.000  -0.000  -0.000  -0.000   0.000  -0.000   0.000  -0.000   0.000   0.000   0.000   0.000  -0.000
  0.000   0.000   0.000  -0.000  -0.000  -0.000  -0.000  -0.000   0.000   0.000  -0.000  -0.000  -0.000  -0.000   0.000   0.000
  0.000   0.000  -0.000  -0.000  -0.000  -0.000  -0.000   0.000   0.000   0.000  -0.000  -0.000  -0.000   0.000   0.000   0.000
  0.000  -0.000   0.000  -0.000  -0.000  -0.000  -0.000  -0.000   0.000   0.000   0.000   0.000  -0.000  -0.000  -0.000   0.000
 -0.000   0.000   0.000   0.000  -0.000   0.000  -0.000  -0.000  -0.000   0.000  -0.000  -0.000   0.000  -0.000   0.000  -0.000
 -0.000  -0.000   0.000  -0.000   0.000   0.000   0.000  -0.000  -0.000  -0.000   0.000   0.000  -0.000  -0.000  -0.000   0.000
 -0.000  -0.000  -0.000   0.000   0.000   0.000   0.000   0.000  -0.000  -0.000  -0.000  -0.000   0.000   0.000  -0.000  -0.000
 -0.000  -0.000   0.000  -0.000  -0.000  -0.000   0.000  -0.000   0.000  -0.000  -0.000   0.000  -0.000   0.000  -0.000   0.000
 -0.000   0.000   0.000   0.000  -0.000  -0.000   0.000  -0.000   0.000  -0.000   0.000  -0.000  -0.000  -0.000  -0.000   0.000
  0.000   0.000  -0.000   0.000  -0.000  -0.000  -0.000   0.000  -0.000   0.000  -0.000  -0.000  -0.000   0.000   0.000   0.000
 -0.000   0.000   0.000   0.000  -0.000   0.000  -0.000  -0.000  -0.000   0.000   0.000  -0.000   0.000  -0.000   0.000  -0.000
 -0.000   0.000  -0.000   0.000   0.000   0.000  -0.000   0.000  -0.000  -0.000  -0.000  -0.000   0.000   0.000  -0.000  -0.000
 -0.000   0.000   0.000  -0.000   0.000   0.000   0.000  -0.000   0.000  -0.000   0.000   0.000   0.000  -0.000  -0.000  -0.000
  0.000  -0.000  -0.000  -0.000   0.000  -0.000   0.000   0.000   0.000  -0.000  -0.000  -0.000  -0.000   0.000  -0.000   0.000
 -0.000  -0.000   0.000  -0.000  -0.000   0.000   0.000  -0.000   0.000   0.000   0.000   0.000  -0.000  -0.000   0.000  -0.000


------------------------ aborting loop because EDIFF is reached ----------------------------------------


    CHARGE:  cpu time      0.1099: real time      0.1105
    FORLOC:  cpu time      0.0030: real time      0.0030
    FORNL :  cpu time      0.2299: real time      0.2320
    STRESS:  cpu time      1.5397: real time      1.5532
    FORCOR:  cpu time      0.0462: real time      0.0464
    FORHAR:  cpu time      0.0044: real time      0.0044
    MIXING:  cpu time      0.0008: real time      0.0008
    OFIELD:  cpu time      0.0000: real time      0.0000

 ---------------------------------------------------------------------------------------------

         DFTD3 V3.0 Rev 1        
 Edisp (eV)   -4.66099

 E6    (eV) :    -2.5751
 E8    (eV) :    -2.0859
 % E8        : 44.75
    FORVDW:  cpu time      0.0108: real time      0.0109

  FORCE on cell =-STRESS in cart. coord.  units (eV):
  Direction    XX          YY          ZZ          XY          YZ          ZX
  --------------------------------------------------------------------------------------
  Alpha Z   137.59429   137.59429   137.59429
  Ewald  132499.80308132499.80308************    -0.00000    -0.00000    -0.00000
  Hartree136392.26003136392.26003************     0.00000    -0.00000    -0.00000
  E(xc)    -772.74173  -772.74160  -774.55185    -0.00012     0.00000     0.00000
  Local  ************************273551.56053     0.00203    -0.00000    -0.00000
  n-local  -254.45272  -267.69163  -265.66985    -7.79850    -0.05824     0.00288
  augment  1134.51294  1134.51504  1139.17034    -0.00182     0.00002     0.00003
  Kinetic  1079.84016  1080.84569  1088.69924     0.70514    -0.87687     1.06185
  Fock        0.00000     0.00000     0.00000     0.00000     0.00000     0.00000
  vdW        -4.92573    -4.92573    -2.45182     0.00000    -0.00000    -0.00000
  -------------------------------------------------------------------------------------
  Total      -7.60174    -7.60174    -2.75598     0.00000    -0.00000    -0.00000
  in kB     -15.74518   -15.74518    -5.70834     0.00000    -0.00000    -0.00000
  external pressure =      -12.40 kB  Pullay stress =        0.00 kB


 VOLUME and BASIS-vectors are now :
 -----------------------------------------------------------------------------
  energy-cutoff  :      600.00
  volume of cell :      773.53
      direct lattice vectors                 reciprocal lattice vectors
     5.112382028  0.000000000  0.000000000     0.195603536 -0.112931754  0.000000000
     2.556191014  4.427452710  0.000000000     0.000000000  0.225863508  0.000000000
     0.000000000  0.000000000 34.174242446     0.000000000  0.000000000  0.029261804

  length of vectors
     5.112382028  5.112382028 34.174242446     0.225863508  0.225863508  0.029261804


 FORCES acting on ions
    electron-ion (+dipol)            ewald-force                    non-local-force                 convergence-correction
 -----------------------------------------------------------------------------------------------
   -.385E+00 -.222E+00 0.318E+04   0.414E-01 0.239E-01 -.317E+04   0.284E+00 0.164E+00 -.168E+01   0.641E-03 0.370E-03 0.110E-02
   0.385E+00 -.222E+00 0.318E+04   -.414E-01 0.239E-01 -.317E+04   -.284E+00 0.164E+00 -.168E+01   -.641E-03 0.370E-03 0.110E-02
   0.274E-05 0.444E+00 0.318E+04   -.417E-08 -.478E-01 -.317E+04   0.781E-17 -.328E+00 -.168E+01   -.183E-08 -.740E-03 0.110E-02
   0.255E-05 0.147E-05 0.318E+04   0.502E-08 0.461E-08 -.317E+04   0.244E-17 0.538E-18 -.354E+01   -.301E-10 -.173E-10 0.227E-02
   -.257E-05 -.183E+01 0.357E+02   -.579E-08 0.924E+00 -.350E+02   0.371E-17 0.888E+00 -.765E+00   -.300E-08 -.113E-02 0.347E-02
   -.229E-05 -.132E-05 0.341E+02   0.456E-08 -.819E-08 -.339E+02   0.636E-18 0.179E-17 -.108E+00   0.276E-11 0.160E-11 0.237E-02
   0.158E+01 0.913E+00 0.357E+02   -.800E+00 -.462E+00 -.350E+02   -.769E+00 -.444E+00 -.765E+00   0.980E-03 0.566E-03 0.347E-02
   -.158E+01 0.913E+00 0.357E+02   0.800E+00 -.462E+00 -.350E+02   0.769E+00 -.444E+00 -.765E+00   -.980E-03 0.566E-03 0.347E-02
   -.813E-06 -.470E-06 -.306E+04   -.618E-08 -.249E-08 0.306E+04   -.437E-17 0.171E-17 -.621E+01   -.664E-10 -.383E-10 -.646E-02
   -.444E-06 -.276E-01 -.312E+04   0.517E-08 -.823E-08 0.311E+04   -.542E-17 0.322E-01 0.360E+01   0.503E-09 0.441E-03 -.209E-04
   -.239E-01 0.138E-01 -.312E+04   -.491E-08 0.813E-08 0.311E+04   0.279E-01 -.161E-01 0.360E+01   0.382E-03 -.220E-03 -.209E-04
   0.239E-01 0.138E-01 -.312E+04   0.611E-08 0.220E-08 0.311E+04   -.279E-01 -.161E-01 0.360E+01   -.382E-03 -.220E-03 -.209E-04
   -.127E-06 -.735E-07 -.430E+03   -.197E-09 -.111E-09 0.432E+03   -.511E-20 0.871E-19 -.197E+01   -.631E-11 -.364E-11 0.816E-04
 -----------------------------------------------------------------------------------------------
   -.510E-06 -.291E-06 0.834E+01   0.994E-13 -.356E-13 0.114E-12   0.111E-15 -.554E-16 -.836E+01   -.349E-09 -.202E-09 0.119E-01
 
 
 POSITION                                       TOTAL-FORCE (eV/Angst)
 -----------------------------------------------------------------------------------
      1.27810      0.73791     15.00000        -0.058791     -0.033943      0.160958
      3.83429      0.73791     15.00000         0.058791     -0.033943      0.160958
      2.55619      2.95164     15.00000         0.000000      0.067886      0.160958
      5.11238      2.95164     15.00000        -0.000000      0.000000      0.166060
      5.11238      1.47582     17.08712        -0.000000     -0.015333     -0.012031
      2.55619      1.47582     17.08712        -0.000000      0.000000      0.073517
      6.39048      3.68954     17.08712         0.013279      0.007667     -0.012031
      3.83429      3.68954     17.08712        -0.013279      0.007667     -0.012031
      0.00000      0.00000     19.17424        -0.000000      0.000000     -0.252719
      2.55619      0.00000     19.17424        -0.000000      0.004980     -0.144645
      1.27810      2.21373     19.17424         0.004313     -0.002490     -0.144645
      3.83429      2.21373     19.17424        -0.004313     -0.002490     -0.144645
      0.00000      0.00000     20.68407        -0.000000      0.000000      0.000296
 -----------------------------------------------------------------------------------
    total drift:                               -0.000001     -0.000000     -0.004919


--------------------------------------------------------------------------------------------------------



  FREE ENERGIE OF THE ION-ELECTRON SYSTEM (eV)
  ---------------------------------------------------
  free  energy   TOTEN  =       -48.58118568 eV

  energy  without entropy=      -48.54314125  energy(sigma->0) =      -48.56216346
 
 d Force = 0.1789951E-06[-0.338E-07, 0.392E-06]  d Energy = 0.7659880E-06-0.587E-06
 d Force =-0.4934243E-01[-0.493E-01,-0.493E-01]  d Ewald  =-0.4934243E-01-0.291E-10


--------------------------------------------------------------------------------------------------------


    POTLOK:  cpu time      0.0563: real time      0.0566


--------------------------------------------------------------------------------------------------------




--------------------------------------------------------------------------------------------------------


  
 reached required accuracy - stopping structural energy minimisation
 writing wavefunctions
     LOOP+:  cpu time      8.0818: real time      9.8956
    4ORBIT:  cpu time      0.0000: real time      0.0000

 total amount of memory used by VASP MPI-rank0   109831. kBytes
=======================================================================

   base      :      30000. kBytes
   nonl-proj :      42663. kBytes
   fftplans  :       2678. kBytes
   grid      :      21553. kBytes
   one-center:        404. kBytes
   wavefun   :      12533. kBytes
 
  
  
 General timing and accounting informations for this job:
 ========================================================
  
                  Total CPU time used (sec):      303.108
                            User time (sec):      298.456
                          System time (sec):        4.652
                         Elapsed time (sec):      312.176
  
                   Maximum memory used (kb):      252724.
                   Average memory used (kb):          N/A
  
                          Minor page faults:       319436
                          Major page faults:          115
                 Voluntary context switches:        10839
