Cu H 
 1.0000000000000000
   5.1123820280 0.0000000000 0.0000000000
   2.5561910140 4.4274527101 0.0000000000
   0.0000000000 0.0000000000 34.1742424462
 Cu  H  
  12   1
Selective dynamics
Cartesian
  1.2780955069946849  0.7379087850134323 15.0000000000000000   F   F   F
  3.8342865209840546  0.7379087850134323 15.0000000000000000   F   F   F
  2.5561910139893698  2.9516351400537291 15.0000000000000000   F   F   F
  5.1123820279787395  2.9516351400537291 15.0000000000000000   F   F   F
 -0.0000000000000000  1.4758175700268645 17.0871212231204979   F   F   F
  2.5561910139893698  1.4758175700268645 17.0871212231204979   F   F   F
  1.2780955069946847  3.6895439250671616 17.0871212231204979   F   F   F
  3.8342865209840546  3.6895439250671616 17.0871212231204979   F   F   F
  0.0000000000000000  0.0000000000000000 19.1742424462409957   F   F   F
  2.5561910139893698  0.0000000000000000 19.1742424462409957   F   F   F
  1.2780955069946849  2.2137263550402970 19.1742424462409957   F   F   F
  3.8342865209840546  2.2137263550402970 19.1742424462409957   F   F   F
  0.0000000000000000  0.0000000000000000 20.13249              F   F   T
